38
Energy = -163.1422817 eV, Pt25Cu13
Pt 1.330773609 2.893713384 2.926492274
Pt -0.638771345 0.6747992426 3.329233834
Pt 0.6962617742 -1.695902657 2.96236225
Pt -0.9330020342 -0.6625389787 0.678204727
Pt -1.960406412 -0.812485555 -2.152467957
Pt 3.450466879 0.3628248664 -0.3246555993
Pt 2.004596205 1.516825855 -2.747939804
Pt -2.01387727 1.415070246 -0.8021061565
Pt -0.3887838307 2.093317013 0.9843646694
Pt 1.473321523 0.5491595334 1.577492036
Pt -0.9897640664 1.525204343 -3.320809309
Pt 3.542261948 -1.05289232 2.307667637
Pt -0.1891936972 -3.492453391 1.102919466
Pt -0.1061579944 3.31868757 -1.457031712
Pt -3.746921029 -0.535731017 -0.03026639421
Pt 1.704101886 -1.628554623 0.4069164732
Pt 2.115978647 2.733934284 0.04156441993
Pt 0.5679974153 0.4594363277 -1.113169959
Pt -2.297549654 -1.698965744 2.386475933
Pt 0.05336840316 -2.247012979 -1.363593591
Pt -2.391778314 -2.939438322 -0.4020668316
Pt 0.3639506102 -0.8795707912 -3.690903099
Pt -2.359586137 3.843553554 0.4292321021
Pt 2.571173771 -1.429119189 -2.191452159
Pt -2.863230478 1.257815805 1.83341059
Cu 2.026320248 -3.940926026 -0.7713822187
Cu -2.813066261 3.409542272 -2.246267796
Cu 0.2285018193 4.595557078 1.049617974
Cu -4.432332715 2.199163958 -0.3137451759
Cu 2.091047556 0.4990937068 4.080392247
Cu 2.517489176 -3.587098676 1.864343431
Cu -0.4523436646 -4.781991684 -1.368895328
Cu 3.70468524 1.705263452 2.154589307
Cu -3.837173458 0.9914252215 -2.595188658
Cu 1.152880433 -3.582110385 -3.284655674
Cu -1.470494294 -3.185009355 -3.227932236
Cu -1.387146949 3.387883275 2.977822368
Cu 4.119845119 -2.38936145 -0.04799448909
