13
Energy = -40.41765505 eV, Pt4Cu9
Pt -0.04196757924 -1.222485322 -2.203156321
Pt 0.09944811396 1.40948609 -2.08652509
Pt -2.115135252 0.1738550889 -1.358714141
Pt 0.0306534534 -0.005375819198 0.0841455254
Cu -2.143728909 0.05932600674 1.260501923
Cu 2.109727 -0.0562467256 -1.288754342
Cu 2.115248522 -0.17425604 1.367598881
Cu -1.190626167 2.16663926 0.05554374437
Cu 1.414157088 2.044455325 0.09122202965
Cu 0.04607644596 1.219396099 2.210411553
Cu -0.09506486386 -1.407505538 2.094005529
Cu 1.186963044 -2.183994937 -0.09615411033
Cu -1.415750896 -2.023293488 -0.1301251824
