23
Energy = -93.46416035 eV, Pt14Cu9
Pt -1.557548577 -3.634469456 0.09921723551
Pt 2.35251153 1.746081109 0.8932509302
Pt 1.116728913 -2.750483845 0.7273305204
Pt -1.880058575 0.447044724 2.366898745
Pt 0.8707913909 -0.3155380674 2.205600318
Pt 1.314967403 -0.3411303592 -0.5600024037
Pt 1.319306793 2.133701156 -1.751183752
Pt -0.8515971274 0.3324496775 -2.206297006
Pt -0.3132045538 1.39610439 0.330783412
Pt -3.416062864 -1.651461324 1.116026258
Pt 0.07989332776 -2.368790886 -1.930483883
Pt -2.925109971 0.8375021184 -0.2864230237
Pt -1.011828976 -1.069935863 0.2358052531
Pt -2.74324171 -1.718537385 -1.663943753
Cu -2.015097411 3.044192837 1.241140757
Cu 3.58878482 0.4995508552 -1.324299882
Cu 2.860649758 -2.158156645 -1.426417242
Cu 1.706930864 -0.3435173233 -3.091099826
Cu -1.381002528 2.951262394 -1.401668874
Cu 0.4879849415 3.808058465 0.3721714436
Cu 3.289584186 -0.9344041043 0.9623929901
Cu -1.067793203 -2.284149644 2.501510714
Cu 0.2054033551 2.356369082 2.649770929
