38
Energy = -144.4726368 eV, Pt2Cu36
Pt 2.867396689 1.902469394 0.5822458875
Pt -1.553948002 0.3934745275 0.5172930403
Cu -0.5254741083 1.373372499 -1.906099937
Cu 0.266954269 -1.117492606 2.048777375
Cu -0.02651923428 3.879128802 -2.12765396
Cu 0.232023387 2.426384406 4.153946127
Cu 1.229752298 -0.1755439765 -3.062047792
Cu -2.988311338 0.5880074483 -1.921089991
Cu -0.9423037841 -0.9674771067 -1.876087524
Cu -0.3046048716 -2.181988391 -4.008031418
Cu -2.878560958 -1.753417805 -3.267319517
Cu 3.12786325 -0.4992815468 -0.9756173824
Cu -2.997093642 -1.794058757 -0.5622384239
Cu -1.33294677 0.2596503957 -4.098322254
Cu -2.18962768 -1.893134719 2.060736339
Cu 1.958509121 -2.473277383 3.365474488
Cu 1.218665302 -2.411217349 -1.793480546
Cu 0.4390736694 -4.510238913 -0.2877164038
Cu 0.6971445095 1.227000335 1.999434392
Cu 1.288608737 3.727066013 2.062329974
Cu -1.358342507 2.760213109 2.007353159
Cu -2.088346599 2.706318044 -3.34709787
Cu 2.756092888 1.907867303 3.334817286
Cu 2.071814687 4.272951065 -0.4917003319
Cu -0.5751380684 -2.040315412 4.22681166
Cu -1.359668471 0.391478864 3.340893788
Cu -2.189203454 2.859246199 -0.6543452788
Cu 1.216248522 -0.06036683088 4.187871667
Cu -1.349556093 -3.509571111 -1.965969682
Cu 2.751083307 -0.3823185309 1.870747563
Cu 1.98755968 1.977501484 -1.888325326
Cu -0.07830166572 -3.668826762 2.171106826
Cu 1.974685666 -2.50675985 0.6614189085
Cu -2.122608217 -4.115459256 0.5160427883
Cu 0.4665800531 2.19420438 -4.099816155
Cu -0.5453070619 -2.206864957 0.1049231505
Cu 0.2697770689 2.565779946 0.03662566105
Cu 0.9577606469 -0.04879885158 -0.272955352
