38
Energy = -157.4027239 eV, Pt18Cu20
Pt -2.954364907 -0.3507886863 1.641236361
Pt 0.4205463974 2.55342607 -3.375233127
Pt -2.381563377 -2.450046205 -0.0256781988
Pt -0.7228523562 1.247169438 1.644630342
Pt -0.9282494075 3.933638297 1.131227066
Pt 1.538287376 0.1577823044 0.3384099292
Pt 2.55444963 1.399355623 -2.038701881
Pt 0.109474764 2.068148438 -0.6834199566
Pt 2.51854992 -1.377848424 -2.094042916
Pt 2.224310587 -2.665931165 0.3275643508
Pt -0.1115798439 -1.391327416 1.609417331
Pt -2.74995594 2.164185068 0.01885477633
Pt -2.050438534 1.47776244 -2.533102982
Pt 1.179121018 0.5911135048 3.35517612
Pt -2.0323493 -1.34702313 -2.686069866
Pt -1.483836717 -0.02352595996 3.874714634
Pt 0.3916997506 -2.183279042 -3.74491598
Pt 1.479749449 2.823639868 1.711280635
Cu 1.394744575 -3.977513864 -1.867806382
Cu -1.707988852 -2.78910379 2.736385429
Cu 3.9432925 -0.3751585637 0.009057590082
Cu -3.801166929 -0.1768095851 -0.9911173539
Cu -0.7878296991 0.2438472704 -4.613002172
Cu 1.813753833 0.1824592694 -4.340220997
Cu 0.1141578002 -1.961175792 -1.032649495
Cu 0.2956329074 0.09890290751 -2.333474575
Cu 0.4374143369 -1.842265394 4.235123352
Cu -0.2535649775 -3.974396723 0.437999443
Cu -1.33042004 -0.07036274601 -0.4288204163
Cu 3.327325937 2.346916839 0.0610905085
Cu 1.012284236 -3.645214367 2.603052167
Cu -1.272454909 3.993952707 -1.62958859
Cu 2.566938925 -1.406804514 2.476975025
Cu -0.461343332 2.749949791 3.726601162
Cu 1.442801881 4.008504543 -0.9548807096
Cu -2.822528579 2.257930551 2.73299873
Cu 3.530463599 1.001885915 2.19970568
Cu -1.207130604 -3.871456094 -2.107676018
