13
Energy = -3029.862257 eV, Pt5Cu8
Pt 3.543703392e-09 4.588880037e-09 2.265495562e-09
Pt -0.5970961518 2.432536905 0.2267941736
Pt 0.5970961552 -2.432536902 -0.2267941721
Pt -0.340328405 0.9331205245 2.310553572
Pt 0.3403284052 -0.9331205269 -2.310553573
Cu -1.68961082 -1.530283505 -0.8929507677
Cu 1.689610824 1.5302835 0.8929507697
Cu -1.016047451 -1.505528922 1.621625056
Cu 1.016047449 1.505528925 -1.621625058
Cu -2.276087687 0.5753581786 0.6944791008
Cu -1.430781054 0.9163417889 -1.744081686
Cu 1.430781049 -0.9163417926 1.744081685
Cu 2.276087688 -0.5753581741 -0.6944791005
