38
Energy = -150.401483 eV, Pt20Cu18
Pt -0.139691663 1.183710318 -1.48150826
Pt -2.071020368 -1.44264484 -3.349457586
Pt 1.858631857 -2.985821093 2.287819359
Pt -2.531658485 -1.810830109 1.278932156
Pt -1.648681013 0.7166768158 0.7122223831
Pt 0.9685572615 1.336856473 0.9718238846
Pt -0.3350709751 -3.301121805 -2.563247966
Pt -2.78448081 0.5789292435 -1.762330615
Pt -0.5322812067 0.8727948829 3.186600839
Pt -0.9860735071 -1.317013975 -0.9339095251
Pt -1.822021388 -3.780664338 -0.3937192506
Pt 0.1190043271 -1.161742496 1.516647325
Pt 0.7963063177 -3.254372802 -0.1404069253
Pt -0.7156027513 -3.617710033 2.031850894
Pt 2.759312481 -0.5377910606 1.796214776
Pt -0.7933862105 3.236406617 0.1749017324
Pt 1.629318698 -0.7007022006 -0.6763313371
Pt 0.5247840276 -0.8493375572 -3.169825654
Pt -3.55521106 -1.909396255 -1.187320085
Pt 2.4859765 1.821380124 -1.220261658
Cu 0.2938900975 3.234396784 2.522976839
Cu 1.990262026 1.422606419 3.299603409
Cu -4.098767125 0.08129132879 0.4234002422
Cu 1.742491585 3.69204507 0.4071624141
Cu 1.324065851 1.593285118 -3.518514519
Cu 0.6913805896 3.547131444 -1.919974263
Cu -3.258943196 2.508229694 -0.09448735243
Cu -1.207406041 0.9874001829 -3.787757796
Cu -1.828154065 2.95284502 -2.17637187
Cu -1.325780776 -1.572286668 3.575963365
Cu 1.190905732 -0.9671808168 3.823633681
Cu -3.00399833 0.2307170603 2.806183555
Cu 4.067319392 -0.04366981073 -0.383180013
Cu 2.998851252 -0.1923532885 -2.755992263
Cu 2.178828212 -2.62672369 -2.252850406
Cu 3.263588447 -2.47508561 0.1471204716
Cu 3.4421329 1.884746994 1.183086125
Cu -2.18185326 2.646560083 2.276836887
