23
Energy = -110.3113897 eV, Pt23Cu0
Pt -1.673462968 3.395222684 -0.3152734808
Pt 2.178766874 0.490339882 -1.697453222
Pt 2.515620617 -0.166902117 0.9541984049
Pt -0.09821474755 3.348953016 1.742331316
Pt 1.219906204 -3.788354157 -1.059591526
Pt 0.260989718 2.368020848 -1.858639899
Pt -2.068409664 -0.9021681986 -0.7760914154
Pt 1.588184377 -1.906236629 -2.94318537
Pt 1.874170381 2.320635533 0.248510588
Pt 1.253669873 1.354094657 2.665297178
Pt -0.306473035 -0.08400486027 -2.732053171
Pt -2.254360087 1.45713906 -1.916932188
Pt 0.1500740326 -0.9673350822 2.121722928
Pt -0.8974099847 -2.997423519 0.5791500123
Pt -0.8486101096 -2.713042508 -2.221836858
Pt 3.174689623 -1.952836969 -0.8708764718
Pt 1.824585421 -2.791562011 1.269922283
Pt -1.406928932 1.180855075 2.782724341
Pt -3.066354634 1.229601981 0.6151579656
Pt -0.4372548107 1.029443637 0.317428514
Pt -2.681159194 3.348051262 2.087441437
Pt -2.419797904 -1.071616075 1.787953791
Pt 0.6143571982 -1.241539082 -0.538729575
