38
Energy = -9694.779624 eV, Pt21Cu17
Pt -2.171133198 -3.483822416 -0.4992823845
Pt -4.002989867 0.476591564 0.5070182113
Pt 0.3832170065 -0.8612649745 -3.127660431
Pt -2.625406419 -1.597864885 1.213503053
Pt 2.94521515 -2.904536954 -0.04041334016
Pt 1.106848745 -1.341019539 3.754916029
Pt 2.671958788 -1.003959273 1.699189872
Pt -0.3803361181 0.7182952467 3.182217705
Pt -0.7331329262 -3.130747779 -2.576129477
Pt -1.085654443 1.188381728 -3.698694457
Pt 4.017224875 -0.6308999393 -0.4823998687
Pt -2.639517387 0.8450533104 -1.658175657
Pt 0.3976944224 -3.305572018 -0.2563203734
Pt 2.18245551 3.336591558 0.5276845447
Pt -1.429644766 -1.627951178 3.504076705
Pt -0.3847584051 3.156339703 0.2914315535
Pt 0.7485759629 3.004752923 2.627280174
Pt 2.204159019 0.9856340695 3.31122816
Pt -2.930774611 2.749883653 0.06597491487
Pt 2.639169328 1.445512013 -1.176133368
Pt 1.438721859 1.475095093 -3.46877685
Cu 0.0009664755609 1.094753852 -1.354028371
Cu -1.447656779 3.057031552 -2.013648201
Cu 1.804432011 -2.799315951 -2.307174664
Cu 3.602005681 1.31669879 1.181386403
Cu -2.139822791 -1.10796098 -3.203201676
Cu -3.572928515 -1.459253501 -1.135283554
Cu 1.066206114 3.343397436 -1.786828951
Cu -1.441124489 0.7426128794 0.7243824894
Cu -1.797986583 2.651604112 2.336358528
Cu 1.462152471 -3.208172342 2.045710782
Cu -1.071722067 -1.18152738 -0.9132724521
Cu -1.053005284 -3.493839815 1.819649911
Cu -2.867437463 0.3834025923 2.778280503
Cu 1.090191669 1.033318914 0.9646274905
Cu 1.455579341 -0.8938936864 -0.682537338
Cu 2.872333083 -0.5353005254 -2.74631038
Cu 0.01721140611 -1.243532524 1.401387338
