38
Energy = -152.545854 eV, Pt21Cu17
Pt -0.9372258141 2.26873643 3.47201616
Pt 2.714676933 -0.5605082716 3.240604412
Pt -1.380672625 -0.4264930791 -1.113216382
Pt 4.130606111 0.1856264934 1.11337867
Pt 1.292872111 -0.801550508 -1.14712083
Pt 1.507310516 0.5619469329 1.16862093
Pt -2.857582049 -1.206373761 1.040122015
Pt -0.1510801255 -1.564119393 1.010432489
Pt 3.132355291 2.647595834 1.312083713
Pt -3.770858956 1.287041431 1.209549394
Pt -2.412800002 2.08432652 -0.9300138433
Pt 0.06737445726 -0.2081485674 3.382243907
Pt 0.2846848291 1.698058265 -0.9542727317
Pt 2.551134672 -1.961197484 0.9748031608
Pt -2.576979381 0.1712819973 3.304914035
Pt 1.710773312 1.909204647 3.450160868
Pt -1.157705374 0.9358951967 1.200307122
Pt 0.5007945601 3.1074353 1.382434766
Pt -0.3719597695 -2.93571772 -1.32510391
Pt 2.986322295 1.332997369 -1.005276845
Pt 0.05932425108 0.3279285242 -3.286034056
Cu -1.743475259 -3.532596291 0.781524106
Cu 2.202785246 -3.170499645 -1.293332736
Cu -2.104951848 3.309657731 1.350803301
Cu -0.715685608 4.021906882 -0.7160315717
Cu 1.063053277 -2.582334917 3.007335209
Cu -1.51921403 -1.719747947 -3.299507415
Cu 0.8352471385 -3.891923483 0.7508294366
Cu 1.014200325 -2.075190647 -3.331509896
Cu 2.616382762 -0.03314043526 -3.177708009
Cu 3.822447935 -1.123970919 -1.130824533
Cu 1.658754018 2.338259914 -2.993290122
Cu -3.901123068 -0.03943229578 -1.033300621
Cu -1.546658506 -2.221638551 3.038617353
Cu 1.883678523 3.671042168 -0.7481998549
Cu -2.910614564 -2.453809961 -1.231911092
Cu -0.9200841075 2.698733422 -2.955904853
Cu -2.495326107 0.6859012484 -3.109269545
