38
Energy = -9946.86789 eV, Pt30Cu8
Pt -3.0148832 2.539810027 1.112250215
Pt 0.9837880875 3.435321745 -2.123641862
Pt 0.863007951 -3.475997627 -2.083482536
Pt -3.040968632 -1.886943494 1.972049797
Pt 3.450007965 0.4478562418 2.258741376
Pt 3.101154337 1.928290723 -2.015230194
Pt -3.366751803 -0.4182050508 -2.288936277
Pt 3.32978154 2.43265664 0.5229326806
Pt 0.7536531314 -1.523314908 -3.793193925
Pt -3.278220857 -2.397129454 -0.5669138234
Pt 1.215681215 3.93817426 0.4172791229
Pt -2.897438817 0.5986665151 2.793938432
Pt -1.266027728 2.456582699 -3.056240186
Pt -0.9370121395 -3.406342583 2.081408689
Pt -0.7995896171 3.469520164 2.027684531
Pt -1.309949949 -2.021845623 -2.257965651
Pt 2.98355497 -0.5740827796 -2.858027033
Pt 0.8899392321 0.988647003 -3.061490302
Pt 1.119594649 -3.064846296 0.4911016648
Pt 3.093080561 -2.527122966 -1.14918748
Pt 3.320742079 -0.05263188886 -0.3128827063
Pt 1.362367917 2.025971261 2.200168045
Pt 1.332111859 -2.450430943 3.032317726
Pt 3.329696927 -2.011824042 1.429243835
Pt -0.8176442959 -0.957320263 2.996432587
Pt 1.45594659 0.0002774460596 3.837848383
Pt -1.171123195 -3.918212684 -0.4547512903
Pt -1.395990701 0.01794173673 -3.904001671
Pt -1.062186395 3.066087399 -0.5340266089
Pt -3.240536535 0.08507032019 0.2616307853
Cu -3.190040276 1.987482611 -1.436649666
Cu 0.9701306796 -0.9991739488 -1.236770906
Cu 1.087817657 1.453500228 -0.4129152312
Cu -1.023325004 -1.435545005 0.3581941742
Cu -0.6666233683 1.503641582 3.659195595
Cu -1.122263844 0.5009301182 -1.345023893
Cu 1.201170609 -0.4943346509 1.287205237
Cu -0.898104674 1.008816544 1.171530637
