38
Energy = -171.9388053 eV, Pt30Cu8
Pt -0.5392421647 -2.481164482 3.067310222
Pt 2.93212356 0.05091773492 2.06413169
Pt -1.18356431 -1.581492284 -0.6140655577
Pt 2.091782371 -2.426681981 2.623665395
Pt -2.17180573 -3.353888893 1.111175596
Pt 0.9975118042 -0.3752344664 3.905783025
Pt -3.825616405 0.9677399036 0.514657698
Pt 0.456306708 -0.7341857963 1.339213096
Pt -2.228451574 -0.7767871513 1.82130565
Pt -2.885443923 0.1640947613 -1.904613854
Pt -3.806462617 -1.640027884 -0.1579513829
Pt -1.217903512 1.030198872 0.04065396081
Pt 0.9631406685 -2.670037297 -1.858606332
Pt -2.275443251 3.069458457 1.370721975
Pt -2.820280798 -2.459744556 -2.493985343
Pt -0.3813420153 3.539162398 -0.5213585992
Pt 3.422169159 0.7497609535 -0.4987774991
Pt -0.7285204537 1.742794139 -2.524493679
Pt 1.763335092 2.489210372 -1.789902996
Pt -2.846250444 2.751217978 -1.211001778
Pt 0.9459934503 -0.0263111789 -1.25111932
Pt 3.043751687 -1.058366612 -2.491773039
Pt 1.26130416 1.761130192 0.7594038911
Pt -1.210205334 -4.148812778 -1.242686228
Pt -0.7514112579 -0.8714512383 -3.192327624
Pt 1.406179373 0.6598968869 -3.765488018
Pt -0.6507678171 1.365498293 2.689909138
Pt 0.2007211853 3.801819944 2.05464661
Pt 0.4714275271 -3.359633271 0.702656123
Pt 2.61546802 -1.763228978 0.07438487592
Cu 1.346891797 -1.869278754 -4.253317577
Cu -0.7110058947 -3.381374077 -3.648679085
Cu 3.722331951 1.349744172 -2.961528483
Cu 3.57366292 2.493868426 1.440119284
Cu -3.183437051 1.279094875 3.000788759
Cu 1.785393458 2.060539955 3.255977355
Cu 2.046458535 4.114239122 0.2419995034
Cu -1.559580526 -0.4287567912 4.263418581
