23
Energy = -104.0373818 eV, Pt20Cu3
Pt 3.414822803 -0.4159646898 0.9806123574
Pt -2.117689168 2.050618525 -0.5658582573
Pt 2.192258588 1.205154096 -0.8440826987
Pt 0.2824847819 2.687875967 0.4608908764
Pt -3.100089573 0.09905191304 -2.109984564
Pt 2.422531609 0.08479261301 3.347796455
Pt 1.676439473 -1.489507264 -0.6622828865
Pt 1.449113292 -2.119092414 1.989348705
Pt -0.127997415 -0.4538791598 3.575965071
Pt -2.325142349 -2.230634911 -0.9444485746
Pt -1.522296778 1.185760218 1.892563753
Pt -3.22202628 -0.1731701909 0.4564747059
Pt 0.8491854273 0.2562084295 1.211109454
Pt -0.9802196257 0.09157609367 -3.583440728
Pt 2.737218751 2.096674352 1.584130806
Pt -0.1532416224 -2.200095892 -2.486506747
Pt -0.6913912861 -0.1459612633 -0.8908221056
Pt 0.03445456711 2.060814664 -2.131245524
Pt 0.6307659836 2.076837702 3.141601258
Pt -1.165026488 -1.528106645 1.411183454
Cu 1.383713303 -0.1351849126 -2.820586193
Cu -0.06217716312 -3.212631004 -0.09346248551
Cu -2.48109186 -1.959524342 -3.471119117
