23
Energy = -85.98348713 eV, Pt4Cu19
Pt -1.632995128 -0.2532306693 2.5854491
Pt 0.8928888051 -1.22161894 1.825064852
Pt -2.756990573 1.224823317 0.45007907
Pt -0.974107024 1.233478912 -1.721854104
Cu 2.214843192 -1.763527496 -2.360381108
Cu 2.488266216 0.9120531097 1.136868208
Cu 0.7490106362 1.100699324 3.252964928
Cu 0.6031544705 -2.778349246 -0.425277978
Cu -1.275111184 -2.861837594 1.5756245
Cu 3.377090433 0.5117535953 -1.397255815
Cu -0.469378722 -1.367969519 -2.462876251
Cu -1.385131758 2.536526634 2.510945052
Cu -2.989071662 -0.6079800758 -1.680561256
Cu 3.01881529 -1.608685045 0.1740167375
Cu -2.042886248 -2.996313769 -0.9725398253
Cu -3.43165638 -1.469867685 0.8150401581
Cu 1.310134638 0.6382280209 -3.072134273
Cu -0.9649503968 3.354557324 -0.003220833111
Cu 1.120050995 3.195635055 1.648509557
Cu 1.41573296 2.322433379 -0.9007302431
Cu -1.144320209 -0.884577593 0.0161777065
Cu -0.1019895295 1.155949785 0.8799325007
Cu 1.100968821 -0.2483445529 -0.7252917332
