38
Energy = -9237.596226 eV, Pt7Cu31
Pt -1.679944232 1.075707004 2.534359722
Pt 1.685208687 -1.096430941 -2.50245374
Pt 2.971124127 1.248447825 0.08516207557
Pt 1.474690048 -0.8772908682 2.747812969
Pt -0.1886485917 3.202993169 -0.1231148943
Pt -1.469860955 0.8570203022 -2.705049654
Pt 0.1900380132 -3.214825954 0.1599413063
Cu 2.722940663 1.290832922 2.579718591
Cu -0.2793294754 3.148837349 2.37949258
Cu -0.8130477619 -0.9191284939 3.777737207
Cu 0.8115882818 0.8966695657 -3.742831912
Cu -1.498071958 0.9350536101 -0.08095748498
Cu 3.715026151 -0.8599515067 -1.049503397
Cu 2.923256567 1.082313328 -2.416100014
Cu -2.394868161 2.961185251 1.047510222
Cu -2.866454908 -1.223357663 -0.04573574005
Cu 1.524277825 -0.9454269155 0.1187179637
Cu 2.392866694 -2.982314643 -1.013540362
Cu -2.697512358 -1.299156311 -2.517225672
Cu 0.6243466453 1.119397149 1.261409636
Cu -0.5130196372 -1.231443796 -3.704869046
Cu 0.511380355 1.209172163 3.744260034
Cu 0.7254494615 1.01415384 -1.26006229
Cu -1.91506537 -3.218552511 -1.166719838
Cu -0.7003751609 -1.02175143 1.295869733
Cu 3.614919498 -0.7557452283 1.447124346
Cu 1.931983175 3.231105787 1.214523619
Cu -2.895842226 -1.092704395 2.429060464
Cu -3.581400342 0.7288579859 -1.394904823
Cu 2.032192698 3.126792525 -1.2846672
Cu 0.07552552508 -2.957893097 2.649467042
Cu -0.5994155112 -1.126845652 -1.222030542
Cu 2.292791305 -2.878140943 1.482305418
Cu -2.295041158 2.857270404 -1.442139047
Cu -0.0791964924 2.940508551 -2.611753545
Cu 0.2757270352 -3.166293406 -2.34348991
Cu -3.680429867 0.8319427337 1.07485988
Cu -2.014365878 -3.115185499 1.309801584
