38
Energy = -182.7900973 eV, Pt30Cu8
Pt -0.8418991083 0.9474129508 1.442467932
Pt 1.538673598 2.026152146 2.202498344
Pt 3.647790048 -1.897338418 0.9686881882
Pt -3.076986316 2.300444832 1.609818231
Pt 1.018598654 1.585802874 -0.4415794321
Pt 3.152159523 -2.335596286 -1.554015977
Pt 1.431717925 -0.5289257365 1.234613866
Pt 1.381508801 -3.098749619 0.2430680709
Pt 0.4970324077 1.20356656 -3.112546243
Pt -1.772846265 2.570101842 -2.794189462
Pt 3.71837246 0.5557188407 1.923068588
Pt -2.727712113 -2.192419153 2.2821344
Pt 0.8501744869 -3.376822012 -2.370965406
Pt 0.9376475828 -0.9292475049 -1.423839706
Pt 1.102479719 4.012206514 0.5043933633
Pt 3.343690137 0.1517670852 -0.6517594401
Pt -0.9467250077 -1.586876334 0.4331409438
Pt -3.266653019 -0.1486452407 0.6700907818
Pt 0.3781011493 -1.311211372 -3.964476308
Pt -1.795613496 0.1036290145 -3.766280323
Pt -0.5432916654 -3.618518615 2.013960492
Pt -1.371127832 0.5188148458 -1.204788941
Pt -3.557577565 1.947899714 -0.9291793843
Pt 3.312219634 2.606635584 0.367443684
Pt -0.444627427 -1.199230721 3.088922235
Pt -0.9441757683 -4.026014385 -0.5576648633
Pt -1.453908375 -2.037990109 -2.229827961
Pt -2.656573618 0.2451148681 3.201117537
Pt -1.301359917 3.104371275 -0.2086285866
Pt 0.5177699811 3.621286282 -2.034378498
Cu -3.623782405 -0.525374722 -1.934499393
Cu 1.886837188 -0.09347489324 3.728373829
Cu -0.3342347715 1.291763854 3.94034306
Cu 1.793027179 -2.583220159 2.78837053
Cu -3.197178993 -2.624804671 -0.30635776
Cu 2.783721171 2.23055923 -2.218485364
Cu 2.708015982 -0.2757447301 -3.194704807
Cu -0.7299525211 3.385042866 2.342549426
