38
Energy = -139.2753743 eV, Pt11Cu27
Pt -0.02214544636 3.528050762 1.004064108
Pt -1.389620908 -0.4173180613 -0.1202808714
Pt -1.336092611 0.3108004104 -2.663314154
Pt 0.03396868542 0.9915931273 1.674728934
Pt 0.8442788319 -0.7399359006 -1.599117709
Pt 0.827594372 -1.459202634 0.9897289059
Pt -0.5678211541 -2.85634551 -0.8003988184
Pt 2.235433601 0.665989871 0.2038149096
Pt 0.04532028065 1.727316373 -0.9095195723
Pt -2.152876749 2.038463025 0.567705807
Pt 2.067431796 -2.924788696 -0.7995210114
Cu -0.03042561921 2.782397757 3.485028849
Cu -1.367060849 -1.120148975 2.420405216
Cu -3.467470758 -0.06105256823 1.311951399
Cu 0.05985939764 2.362241727 -3.376476869
Cu 2.063997591 -2.192462712 -3.291036123
Cu 0.8073998034 -2.088443814 3.42876897
Cu 2.123585264 3.180955633 -0.4320216927
Cu -2.684895291 -2.477725613 0.6364848154
Cu 0.8263896136 -0.004752273004 -4.038044629
Cu 0.7095124857 -4.214886466 -2.521850713
Cu -0.005255481675 4.19773166 -1.504995417
Cu -2.108687646 2.706125678 -1.958659062
Cu 2.108974001 2.475554264 2.063849429
Cu -2.124379376 3.780552439 2.414637066
Cu 2.032081205 -3.586681381 1.704845641
Cu -3.467000228 0.6411787962 -1.204371589
Cu 3.40670266 -1.531949275 0.9437149728
Cu 2.210188387 1.36476776 -2.325477109
Cu -2.109134706 4.489475719 -0.0890023783
Cu 0.6919911133 -4.916647222 -0.01622510993
Cu -0.5525058503 -2.099454081 -3.301818915
Cu -2.114913864 1.288482673 3.046838325
Cu -2.685098703 -1.773382182 -1.879257343
Cu 2.198690722 -0.04901059588 2.719275352
Cu 0.04611566211 0.2625303341 4.08587063
Cu 3.422976768 -0.8317013486 -1.553600752
Cu -0.5678074833 -3.489090659 1.711496996
