38
Energy = -143.267902 eV, Pt1Cu37
Pt 0.4154537846 0.113268498 1.428619438
Cu 0.6703949692 -1.699562838 -2.95533425
Cu 1.412422589 -4.220567051 0.5162804708
Cu 2.617779779 -2.781025987 -1.497363942
Cu -3.881348927 0.1593787474 0.9602295841
Cu -3.685666598 2.344833838 -0.8976902983
Cu 3.060518166 -0.640627341 -3.18738665
Cu -3.681582944 -2.336836839 -0.02266867212
Cu 2.083097514 -0.3593731698 3.193826496
Cu 1.862359494 -0.3172551918 -0.9853865476
Cu 2.58680367 -1.798514984 1.018687055
Cu -3.052041219 -0.1005080714 -1.530232764
Cu -1.643836067 -1.125875935 0.5755094927
Cu -1.375127423 -3.719824411 0.4331351795
Cu -0.5006754099 -0.06439905554 -1.327075473
Cu 3.103151642 0.7980816474 0.8569267019
Cu 1.84986502 2.388253579 2.235882122
Cu 3.136857428 1.647429035 -1.762873407
Cu -2.010571147 0.5962387181 2.689064523
Cu -1.389298109 3.763263146 -0.3314451414
Cu -3.223229758 2.762630507 1.613108519
Cu 1.021906952 3.601417216 -1.919279795
Cu -1.407597545 -0.2136968124 -3.640411835
Cu -0.4849357511 -1.026920905 3.914035443
Cu 4.308141427 -0.7597374605 -0.8751174876
Cu -1.335721072 2.099080974 -2.251085857
Cu -1.704542125 1.337725971 0.2312460489
Cu 0.2310743181 -4.11927144 -1.825835602
Cu 0.9542883677 1.075360904 -3.026816474
Cu 3.022489675 3.362695316 0.04808765365
Cu -2.521604731 -2.076760968 2.479887777
Cu -0.6323352549 2.758059261 1.982358912
Cu 0.2356383284 1.374870884 3.966350337
Cu -1.717335265 -2.319792836 -1.864785855
Cu 0.865539803 4.441785728 0.688601279
Cu 0.2521284701 -2.487083411 2.132954989
Cu 0.7942741554 1.968872901 -0.2686829954
Cu 0.4205642763 -2.128703711 -0.3462283163
