38
Energy = -9446.61585 eV, Pt13Cu25
Pt -2.800990749 1.075712086 -1.235358644
Pt -3.787844252 0.9789999118 1.122847978
Pt 0.6997871917 3.844754935 -0.9286470412
Pt 1.795484791 2.499893904 0.9511636609
Pt 2.742445718 -1.093498166 1.305894326
Pt -0.7607698255 -3.858346226 1.007065284
Pt 1.569420051 -1.7673732 -2.196423402
Pt -0.6714684756 -1.863340576 2.606220428
Pt 3.733068353 -0.9976438616 -1.048234533
Pt -1.854986052 -2.521357374 -0.8804658288
Pt -1.616861986 1.728649786 2.251845156
Pt 0.615375826 1.86016769 -2.555116939
Pt 0.4675178397 -0.275242234 -3.967987113
Cu -0.4867386507 1.717492514 -0.1358209825
Cu -0.3702661505 3.734265844 1.34884488
Cu -2.731665173 -0.4315144705 2.926927233
Cu 1.429691771 -3.133154309 2.026381372
Cu 0.4326715253 -1.737160718 0.200851868
Cu 2.678077215 0.4095036672 -2.880290466
Cu -2.56685187 3.047395643 0.3224188787
Cu 2.76956855 2.449829362 -1.373514864
Cu 2.511633416 -3.068612233 -0.2459926393
Cu -2.77011272 -0.9959914358 -2.649344822
Cu -0.7107685345 -2.338660295 -3.125635961
Cu -0.5925470558 -0.3236343904 -1.639069052
Cu -1.491133139 3.116221415 -1.95150455
Cu 0.6439211375 2.308840297 3.171175722
Cu -1.606185661 1.066962811 -3.461733806
Cu -2.829863461 -2.467031752 1.446001735
Cu 1.537835201 -1.087801318 3.505853305
Cu 0.3077577657 -3.758232212 -1.27144348
Cu -3.850950599 -1.051360066 -0.3699647874
Cu 2.705213889 0.9752787053 2.723580928
Cu 3.791397556 1.033108868 0.4431841581
Cu 0.5373019015 0.3028907231 1.697103969
Cu -0.5230168962 0.246488118 3.952803226
Cu -1.667681714 -0.3855321475 0.6588705501
Cu 1.613073402 0.3647672265 -0.6001706401
