38
Energy = -152.8665064 eV, Pt12Cu26
Pt -1.583365661 2.981530447 -0.583458919
Pt 1.087407186 3.080835122 -1.032167217
Pt 2.808951139 2.087028193 0.8063630598
Pt 0.1887931357 3.197628112 1.865434893
Pt -1.772415617 -1.20824717 -2.666342126
Pt -0.009907590223 -1.243919284 -0.3446969006
Pt 0.8876250939 -1.109586795 -3.113903736
Pt -2.525943592 1.885138372 1.706478246
Pt 1.839023168 0.9892125429 3.087717465
Pt 0.09832720641 1.027816623 0.7955072517
Pt 2.59040073 -2.110937398 -1.271984004
Pt -2.704033549 -2.309587747 -0.3831771615
Cu -4.17693899 1.963197072 -0.538627876
Cu -0.3578199396 0.973803979 -1.918993011
Cu 4.219273871 -2.209161071 0.9370844475
Cu -2.226432393 0.3548539126 -0.5066408453
Cu -0.6549358006 3.131700261 -3.206115456
Cu 0.4623779776 -1.250640331 2.475989441
Cu -0.9766818299 -3.179451015 1.424680085
Cu 1.909871753 0.5081042077 -1.201077479
Cu 4.369659432 0.2261845416 2.148017908
Cu -0.7672702105 0.718597081 -4.40530761
Cu 3.620383103 2.252418579 -1.854097253
Cu -0.1073545071 -3.345860917 -1.380526591
Cu 3.499955135 -0.1647065929 -3.052047986
Cu 2.879849341 -1.713878678 3.135235252
Cu -4.282310477 -0.4528866358 -1.741216989
Cu -3.507757648 -2.493381187 2.240030238
Cu -4.253058196 -0.2802183396 0.9322873632
Cu -2.736260415 1.495175546 -2.755476407
Cu 1.616573578 -3.081603591 0.9885712784
Cu -0.8264517925 0.8404007557 3.44176684
Cu 4.335130059 0.03745160735 -0.5149699753
Cu 1.571310679 1.654781868 -3.480236137
Cu 2.286693029 -0.5690303579 0.9434535477
Cu -1.560512913 -1.868592197 3.877036335
Cu -1.804001383 -0.7265406035 1.620890023
Cu -3.412959804 -0.05690757829 3.457403065
