23
Energy = -92.1713098 eV, Pt12Cu11
Pt 0.8124804151 -0.4568013768 1.133129588
Pt -0.2715361974 2.124554448 0.9687659656
Pt -1.332924152 0.1407887314 2.731575293
Pt -1.014691636 -2.458958009 1.558860064
Pt -2.562470741 -2.469907682 -0.8935952638
Pt 0.2682549564 -2.202825494 -0.9962396917
Pt 2.507134509 1.61468482 0.5249683146
Pt -1.66569158 2.031974261 -1.524651117
Pt -1.348409517 -0.5623656204 -2.709532023
Pt 0.631096188 0.574045186 -1.186848248
Pt -1.469613032 -0.2389675352 0.01224332343
Pt 2.829419938 -0.979626105 -0.6529703997
Cu -3.677209324 0.06900208421 -1.201205423
Cu 2.790359347 1.338746944 -2.278186206
Cu -3.003100725 1.592255815 0.9458117716
Cu -3.479352476 -1.055461357 1.329465757
Cu 0.9581917374 3.10933363 -1.331960462
Cu 1.793566086 -2.816576647 1.257371807
Cu 0.3233441575 1.586578296 -3.491900809
Cu 1.44984901 -0.8631449327 -3.138930819
Cu 3.135743555 -0.6241563387 2.139430632
Cu 1.301467146 1.158431131 3.058654778
Cu 0.8657829018 -1.496227164 3.446126624
