13
Energy = -39.82865432 eV, Pt2Cu11
Pt 0.08960724466 -0.1469813989 -0.3541752003
Pt 2.493065159 -0.3804139804 0.0634053407
Cu 1.321819691 1.870143898 0.4890464809
Cu 0.901654371 -2.341448566 0.5530502354
Cu 0.8532501461 -0.1868403092 2.036102282
Cu -1.408414363 -1.285819922 1.251460113
Cu 1.659815803 0.9868217456 -1.95013848
Cu -2.336218592 0.08862366025 -0.7756415305
Cu -0.6514173845 2.0373383 -1.247883875
Cu -1.070937331 -2.167785208 -1.183978425
Cu -1.149136768 1.313089438 1.211964375
Cu 1.400139363 -1.616085448 -1.910581982
Cu -0.6030874728 -0.113960511 -2.728657861
