38
Energy = -144.6617224 eV, Pt13Cu25
Pt -1.574656554 2.36858269 1.606075261
Pt -0.384554036 -0.8224975257 3.168579232
Pt -0.73456362 -0.9995293188 -1.432261474
Pt -1.708756187 -0.1957081313 0.9607145356
Pt -0.639435651 1.60851284 -0.74892018
Pt 1.634094477 0.161031223 -0.866181005
Pt 1.508400571 -2.399304517 -1.51943416
Pt -2.949894591 0.4391437831 -1.289488548
Pt -1.761350775 -2.749777721 0.2649968655
Pt 2.887211585 -0.4721444019 1.375946698
Pt 0.6729417924 0.9712421175 1.529909817
Pt 0.57728861 -1.651158883 0.842806832
Pt 1.694942126 2.714956643 -0.1794321351
Cu -3.844804017 1.226266414 1.028238615
Cu -1.888105492 2.154186498 -2.900252812
Cu -1.978899738 -0.335075928 -3.55247156
Cu -3.93764809 -1.31911277 0.3613163087
Cu 0.4175806118 3.283898905 -2.349221741
Cu -0.4871687134 -3.330498519 2.464814467
Cu -0.3033459774 1.709101939 3.785256135
Cu 2.494974777 -0.6363676778 -3.126314003
Cu 2.950081693 2.055637523 2.007392953
Cu -0.7981747446 -3.496302517 -2.035314732
Cu -2.568227612 0.5993871402 3.243979706
Cu 2.587567112 1.902341906 -2.46114206
Cu 0.4545525397 -4.115485441 0.1347736286
Cu -0.5218888564 4.078371759 -0.05064711034
Cu 0.2341935605 -1.744070544 -3.666616093
Cu 3.869451653 1.282548996 -0.2771383747
Cu -2.826227125 2.949322432 -0.6013546856
Cu 0.7311770705 3.468342215 2.121837282
Cu -3.009969342 -2.088128588 -1.921232244
Cu -2.661087861 -1.946433719 2.576940935
Cu 1.915941114 0.2961532673 3.670792269
Cu 0.3176972591 0.7856546029 -3.066860174
Cu 3.776907031 -1.254677241 -0.9419192572
Cu 2.766300096 -2.982812126 0.6872583694
Cu 1.824978152 -2.197626041 3.017391159
