23
Energy = -89.91152176 eV, Pt9Cu14
Pt 0.9861332008 -2.76937774 -0.6674294285
Pt 1.281789845 1.8390028 -0.753298776
Pt 2.513650081 -0.5654528261 -1.564995443
Pt -2.861059893 -0.235342116 -0.962895183
Pt -1.323370455 1.983260121 -1.866438231
Pt 1.11377613 1.900397313 2.077735192
Pt -0.940301576 0.8960472346 0.5999442441
Pt -1.273086326 -1.847212297 0.7479414525
Pt -0.4239127994 -0.3182044517 2.981278354
Cu 2.366660991 -0.443965797 2.937544454
Cu -0.6358246189 3.443507186 0.4653252461
Cu -1.575401045 -0.3099356438 -3.442118924
Cu -0.1723023921 -0.4375472759 -1.367610205
Cu 0.6878098036 -1.81055678 -3.275184769
Cu 3.202123397 -1.896044567 0.7938713977
Cu 0.8257753871 0.8675215057 -3.288795837
Cu -1.628360239 2.215835574 2.669643868
Cu 3.326343853 0.7825025969 0.7580154604
Cu -1.514434689 -2.508970821 -1.913692873
Cu 0.9861321916 -2.593990461 2.133119241
Cu -3.073891262 2.264982468 0.33025704
Cu -3.004722805 0.02562344766 1.857285556
Cu 1.137481886 -0.4820800739 0.7520879161
