38
Energy = -148.8812459 eV, Pt7Cu31
Pt -0.4108095454 -1.407269433 1.792256951
Pt -0.00111875063 -1.756375393 4.256706508
Pt 1.052993683 0.9184943439 -1.472590218
Pt -0.7526543489 -0.9639073151 -0.8287072129
Pt 0.7421141813 3.463384969 0.002320895483
Pt -3.248345878 0.08798441804 -1.319261138
Pt 1.718968982 0.2486017029 3.063577217
Cu -1.21969795 0.9418054194 -3.039190554
Cu -2.000504641 -1.431905851 -3.353954964
Cu 2.01256443 -1.678813305 -1.78989462
Cu -2.326747934 0.5506212396 1.26026147
Cu -2.046548761 -3.296090775 2.90104362
Cu -1.32021841 1.821679897 -0.6969071583
Cu 2.6611448 2.669386783 -1.934708688
Cu -1.798350194 4.338140345 -0.6070182791
Cu -3.631545811 2.517543067 0.1075643935
Cu 2.631910752 1.799484349 0.793615846
Cu -2.57173981 -0.905676902 3.439978978
Cu -2.99694866 -1.7686806 0.8968011287
Cu 3.692950529 -2.319266707 0.1469643314
Cu 1.781486112 -0.6661202032 0.5124222208
Cu 0.5000122493 -0.8367940007 -3.525067535
Cu -0.1511605364 3.291480889 -2.460873157
Cu 3.726406627 0.2204557258 -0.9031002067
Cu -0.2720147164 -3.116528205 -2.169209411
Cu -2.919834203 2.760518867 -2.411101291
Cu 2.963774741 0.2699794138 -3.319897648
Cu -2.872568512 -2.715344392 -1.452830039
Cu 1.135154424 -3.076637795 0.1454102533
Cu 1.092228105 1.761053475 -4.061709182
Cu 2.241902134 -2.256792087 2.462962005
Cu 4.018554445 -0.2897348489 1.734502214
Cu -1.272752422 -3.589132702 0.3524409595
Cu 0.3429635281 -3.95755927 2.502940461
Cu -1.461909117 3.000226856 1.675618583
Cu 0.1606519769 1.065031237 1.060587905
Cu -0.8012368348 0.9281722338 3.425115697
Cu 0.9909317934 2.850997347 2.686403672
