38
Energy = -170.7627637 eV, Pt37Cu1
Pt 2.02152629 -3.343719475 0.3657495763
Pt -3.596184686 -1.712609244 0.5409064591
Pt 2.150365307 1.158085672 0.1418316831
Pt 0.6135170135 0.3008425367 -1.894900732
Pt 1.894851749 -1.000835783 -3.799981273
Pt -4.232921333 2.635020446 -1.188444003
Pt -5.397487245 0.5303935702 0.4216073629
Pt 0.7471013555 -1.081863894 0.4738888252
Pt 2.693314291 -1.079355165 -1.148024412
Pt 0.3729484392 -2.558150733 -1.912013844
Pt -1.36250921 -0.5796757739 1.77020148
Pt -1.699929236 1.762214884 -2.170951482
Pt -0.3623005702 1.398735352 0.2983062251
Pt -1.486234924 -0.8017346019 -0.9052625931
Pt 3.141664409 -0.9789729863 1.685752557
Pt 3.020608676 1.399893064 -2.502486143
Pt 4.746543701 -2.367923349 -0.2479234458
Pt 1.035957572 3.315456462 1.420215079
Pt -3.817200731 -0.1847332167 -1.97636424
Pt -2.87084241 1.02879508 0.3267581022
Pt 3.460547287 3.301422876 -0.336761341
Pt -1.517699889 2.095653817 2.623141367
Pt 0.8082281608 3.059383058 -1.496445904
Pt -1.02670969 -3.13134214 0.5668033339
Pt 0.9954063695 0.6783563286 2.67710885
Pt 4.7068541 0.5748811243 -0.2583331482
Pt 0.5331362239 1.610278277 -4.065712123
Pt 0.5711429364 -2.204755248 2.838956398
Pt -3.699856404 0.137316323 2.79549105
Pt 4.676448763 -0.9393973381 -2.787032079
Pt 3.078171872 -3.32052091 -2.399705084
Pt -1.201826539 -0.7484762895 -3.573315494
Pt -1.747949597 3.588160004 0.1091049198
Pt -1.184936107 -0.283206518 4.307222865
Pt -2.543318427 -2.851896415 -1.960818824
Pt -4.131765048 2.828599649 1.688748115
Pt 3.565044675 1.881847645 2.156925581
Cu -2.357081123 -2.483635179 3.003964781
