23
Energy = -90.04429322 eV, Pt10Cu13
Pt -1.024026687 -0.2352569356 1.625486508
Pt 1.27230394 0.9948435667 0.9440712879
Pt -1.029640837 -2.685359477 0.5570041925
Pt 0.1653367422 -0.7849846885 -0.6790623876
Pt -2.433364267 -0.7413173935 -0.6629795846
Pt 1.289926359 -1.686116458 1.48396343
Pt -1.00598284 1.572977922 -0.3696265908
Pt -1.000154752 0.2694524268 -2.703176415
Pt 1.319411826 1.269031941 -1.776580215
Pt 2.722713283 -0.6752726339 -0.5564990384
Cu -3.11213525 -1.644967785 1.664219863
Cu 1.344085564 -1.114717682 -2.868415394
Cu -0.666620846 -2.265528886 3.074359864
Cu -0.6159551648 2.812481616 -2.528436228
Cu -1.058460762 -2.401761248 -2.155464138
Cu -0.6498151645 2.262891967 2.075942385
Cu 1.325206914 -3.00663633 -0.7809745432
Cu 3.317161047 -0.1314966596 1.8921765
Cu -3.080838217 1.492047659 -1.797004564
Cu 3.336519769 1.809490651 -0.2493884624
Cu 0.8885247356 0.07432926997 3.30928011
Cu -3.127422403 1.093386782 0.9935817233
Cu 0.920329798 3.261735967 -0.2075138936
