38
Energy = -10101.50991 eV, Pt37Cu1
Pt -1.143564531 0.3981047228 3.185380115
Pt -2.414538063 -3.351966499 0.7100878322
Pt -1.999193936 -2.231781688 -1.648515849
Pt 1.151435993 -0.4002673707 -3.195562588
Pt 1.50480905 0.8898239544 -0.7709480865
Pt -0.4608042803 1.592385476 -3.776459242
Pt 0.9935149286 -0.3798935617 1.572811824
Pt 3.444409755 0.1178031041 2.364264827
Pt 1.993323325 2.221630452 1.645081084
Pt 3.195516783 -1.182738328 0.06304536431
Pt 0.5672944965 -1.643510098 -0.791172987
Pt 2.410940292 3.354018456 -0.7165423849
Pt -0.1674009964 2.857318763 3.04101823
Pt -0.5978237959 1.655869097 0.7420734153
Pt -3.397834129 -0.11495951 -2.334296012
Pt -2.636560027 2.372881405 2.233963566
Pt -3.972502463 -1.36293806 -0.0854742098
Pt -2.002636614 -2.101820423 3.001426998
Pt -2.12766341 3.622151094 -0.04567580179
Pt -1.366519665 -0.8550215167 -3.795998002
Pt 0.3456165709 4.106470893 0.7696321506
Pt -2.492118798 2.332447481 -2.314757242
Pt 1.384407434 0.868316895 3.846610161
Pt -3.557439278 -0.115501225 2.214097595
Pt -0.3492142715 -4.104418969 -0.7760865553
Pt 2.009892826 2.114729104 -3.022996163
Pt -3.206654024 1.187500939 -0.05954950808
Pt 0.1650537275 -2.870360051 -3.06279458
Pt 3.553841594 0.1175530343 -2.220552031
Pt 2.113381366 -3.601395528 0.03960516314
Pt 0.4659008242 -1.613654321 3.826795485
Pt 2.525903132 -2.364168118 2.344450163
Pt -1.535338322 -0.8774649493 0.7218484875
Pt 3.948617148 1.357743675 0.07919626597
Pt 0.0586289311 -3.00626409 1.603344394
Pt 2.632962227 -2.370829571 -2.240418138
Pt -0.05602410226 3.019015259 -1.606596252
Cu -0.9740023645 0.3731009704 -1.542672254
