13
Energy = -3139.366418 eV, Pt8Cu5
Pt -0.7821891018 -2.105434909 1.070852218
Pt 1.043558924 1.698029044 1.480992987
Pt 0.9534515589 -0.1840933029 -2.285322272
Pt -0.9534515589 0.1840932962 2.28532226
Pt -2.452957783 -0.3471333566 0.2321571579
Pt -1.043558928 -1.698029044 -1.480992978
Pt 2.452957797 0.3471333521 -0.2321571532
Pt 0.7821890992 2.105434924 -1.070852223
Cu 1.302232461 -1.977108058 -0.4881616234
Cu -1.302232465 1.977108054 0.4881616271
Cu -1.357533462 0.8220050908 -1.823315092
Cu 1.357533456 -0.8220050927 1.823315094
Cu -3.581058787e-10 -4.702521404e-10 -4.122097781e-10
