13
Energy = -49.05645284 eV, Pt8Cu5
Pt 1.924365905 -0.2350893148 -1.68301234
Pt -1.454101392 -2.052487144 0.3085304819
Pt -0.06496748676 0.1101489698 -0.05204157737
Pt -0.4176695842 -1.467645854 -2.090199439
Pt 0.2669480558 -1.236667772 2.180263225
Pt 1.164730001 -2.245149347 -0.115320359
Pt 2.354462559 -0.1137193432 0.9497124738
Pt 0.5185103902 1.399430907 2.11431588
Cu -0.2024042212 1.126498301 -2.304766557
Cu 1.511622558 2.014421744 -0.2906475965
Cu -1.054290742 2.338004092 0.3026994786
Cu -2.325040065 -0.01534452032 -1.053515608
Cu -1.838222848 0.2124228386 1.684026254
