38
Energy = -9380.852183 eV, Pt11Cu27
Pt 2.98733775 -0.1955310886 -1.34737591
Pt -2.414495993 -1.624737079 -2.790508028
Pt -1.61219941 -2.649772388 -0.5880481426
Pt 0.2205397707 -1.894964101 3.422332853
Pt -0.1874983798 -0.4577578757 -3.269835116
Pt 1.591624901 -2.38440139 1.316750637
Pt 1.692618354 2.802473929 0.4115971852
Pt -1.495810483 2.560792662 -1.500533481
Pt -2.75921454 2.880682923 0.7024861851
Pt -2.921719108 0.3718176158 1.183805659
Pt 0.2837535893 0.6414783653 3.094008181
Cu 2.905245367 2.281975901 -1.718048008
Cu -1.49536339 -0.03604525544 -1.004313165
Cu 3.747687936 1.370064426 0.4549692104
Cu -3.679292643 -1.201482676 -0.648686884
Cu 1.574887976 0.2083771489 0.831287157
Cu -1.921105088 -0.5671892273 3.307888488
Cu 2.463327156 1.766998239 2.556557875
Cu 2.014918303 0.7345660994 -3.459577798
Cu -0.582828945 1.534393535 0.7613911582
Cu -1.876564772 1.935624828 2.866900116
Cu -0.6355645852 -0.9612043114 1.195927838
Cu 0.612018325 -3.806681974 -0.5006595306
Cu 2.41753499 -0.7031615897 3.007852173
Cu 3.697983719 -1.088876159 0.8805543878
Cu 2.7970694 -2.646128814 -0.8684697187
Cu 0.7227475588 1.130383444 -1.36721761
Cu -0.527970385 4.002783286 0.3318948806
Cu 0.327229345 3.078496132 2.493314347
Cu -0.2352902409 -2.912424257 -2.687448678
Cu -0.1170422832 2.03617527 -3.528435692
Cu -2.817663676 -2.108394149 1.5447
Cu -2.332953535 0.8670667188 -3.182651591
Cu -0.6860110351 -3.426335215 1.634652597
Cu 1.959020442 -1.736266733 -3.032438568
Cu -3.627624548 1.284343204 -1.060087967
Cu 0.7788088333 3.584550009 -1.783472252
Cu 0.6641230139 -1.359366633 -0.9393800343
