38
Energy = -134.4627338 eV, Pt9Cu29
Pt 0.2367641514 -0.1398817351 1.69597583
Pt -1.377377868 1.201563808 0.02715766218
Pt -2.378684645 -0.4612572277 1.813207203
Pt 1.5799923 -1.109103493 -0.3994851876
Pt -0.3274092841 2.825176609 -1.767018225
Pt 1.279457486 1.530666627 -0.1239043458
Pt -0.02129104537 0.2216559347 -2.055007316
Pt -1.055664066 -1.43557479 -0.2496265594
Pt 2.848080174 0.186165565 1.51602387
Cu -2.638676144 2.096378969 2.053600262
Cu 2.594087857 0.5539229385 -2.180604948
Cu -2.263654796 -2.632130809 -2.111554433
Cu -0.7136977851 -3.92023263 -0.5091019052
Cu -3.89656362 0.8377062659 0.179325137
Cu -2.878071992 2.469468458 -1.598306899
Cu -2.636113366 -0.09392732967 -1.883218738
Cu -1.621124784 3.726624419 0.2776233176
Cu 0.9281344734 4.042391725 0.1326833537
Cu -1.573322404 1.521681966 -3.607817813
Cu 3.09936325 -2.361587467 1.223127065
Cu -1.08988314 0.8092346971 3.654861072
Cu 1.805372641 -1.422729305 3.243748289
Cu 0.9845727824 1.838512085 -3.75326458
Cu 1.502868084 1.130394593 3.507439448
Cu -0.07248836796 2.467088038 1.936471952
Cu -0.7898043643 -1.744180053 3.391308226
Cu -2.033830989 -2.997422558 1.514988187
Cu 2.235561969 3.102879196 -1.889070893
Cu -3.587861298 -1.705919857 -0.09170031019
Cu 0.5414722058 -2.734694189 1.402005307
Cu 2.503349397 2.733299064 1.761246832
Cu 3.812236394 1.792579523 -0.2589817441
Cu -1.267011473 -1.035300516 -3.85111721
Cu 2.827062791 -2.001543826 -2.401013382
Cu 0.2872106289 -2.387650505 -2.313827085
Cu 1.825867973 -3.605656739 -0.6534824222
Cu 4.103212759 -0.7532444092 -0.5290054038
Cu 1.284159971 -0.7192963049 -3.996191565
