38
Energy = -129.0666424 eV, Pt7Cu31
Pt -1.327894692 0.9593692411 0.8880510781
Pt -1.33217178 -0.811724704 -1.069714525
Pt -0.1681944314 -1.397741814 1.237874863
Pt 2.457896444 -1.539908622 1.360734676
Pt 0.1354899042 1.373571249 -1.269857979
Pt 1.313857953 0.8089716428 1.035772462
Pt 1.309536997 -0.9794825902 -0.9411859592
Cu 2.770490247 1.202501607 -1.120865036
Cu -0.9949987416 3.610501812 -1.561269247
Cu 0.1349623752 -0.3998149314 -3.225318443
Cu -1.584861407 -3.479825608 1.391393208
Cu -2.710824629 -2.91359882 -0.8406920988
Cu -1.278007114 2.64561025 2.765591723
Cu 2.430179514 0.2092673282 3.253603447
Cu 3.858233933 0.6134670102 1.147793125
Cu 1.562791067 3.44968117 -1.42344894
Cu -2.492061713 1.531069285 -1.406584799
Cu 1.277213176 2.499950326 2.907904107
Cu -1.580706381 -1.755328376 3.297624156
Cu 1.264713941 -2.673270619 -2.810593265
Cu 2.702083699 2.903248674 0.8068007727
Cu -3.847230465 -0.6363851588 -1.172342271
Cu 0.9969837168 -1.924689536 3.449044726
Cu -0.1473829119 0.3766180323 3.181831016
Cu 1.558633916 1.730680954 -3.323672872
Cu -0.9991550279 1.889441118 -3.463766303
Cu -2.702538226 0.5245817226 2.959845418
Cu -1.290457793 -2.511566284 -2.93515106
Cu 3.854056923 -1.116013789 -0.7639796125
Cu -2.416868243 3.20804862 0.5354085952
Cu 0.9928216761 -3.653020437 1.538546382
Cu 2.69374039 -0.5454804964 -3.005463036
Cu -3.843079252 1.084459143 0.7298712852
Cu -2.425163651 -0.2338681218 -3.269309537
Cu -2.791624283 -1.228179124 1.090220176
Cu -0.1559099327 -3.154804644 -0.7217964836
Cu 2.421828285 -3.24854556 -0.5686673533
Cu 0.1435178212 3.142131768 0.6899696397
