13
Energy = -51.83251748 eV, Pt7Cu6
Pt -0.9316366378 -1.038830172 -2.068733687
Pt 1.22231286 0.4298269161 -2.133647658
Pt -2.484182126 -0.1097533547 -0.190680309
Pt 0.07188859727 -0.09919720173 0.1065824916
Pt -1.289758661 1.933104653 0.9051064699
Pt -1.097151266 1.536842346 -1.669189364
Pt 1.000981431 2.266583476 -0.2957130532
Cu -1.322317741 -0.3881914077 2.165054999
Cu 0.9334728202 1.149905616 2.097072821
Cu 2.559426736 0.1769004797 0.1302221482
Cu -1.090521712 -2.311792901 0.2402210186
Cu 1.308528699 -1.962547428 -1.017375739
Cu 1.133743707 -1.585235742 1.719542851
