23
Energy = -98.69189808 eV, Pt14Cu9
Pt -1.642727164 -0.4875607849 -1.756699939
Pt -0.03373032501 1.528393862 -0.7568214656
Pt -2.473249387 1.0266024 0.1824924451
Pt -1.46430615 -2.969534938 -0.8728037585
Pt -0.224707698 -0.7956598819 0.462087939
Pt 0.8306987236 -3.252063967 0.2856603085
Pt -1.319171186 -2.808579172 1.672050896
Pt 1.823993812 1.283057722 1.149215284
Pt -0.6455828063 1.83011639 1.833364215
Pt 2.287976681 -1.28553608 1.172905874
Pt 2.106752054 -0.02905731252 -1.076849007
Pt 0.5701725619 -1.866802067 -1.956779023
Pt -1.667219336 3.458584908 0.02454304809
Pt 0.7996392591 3.629234143 0.6253633994
Cu 2.296041833 2.547873768 -1.185627149
Cu -1.959305865 -0.371311184 2.377011079
Cu -3.082332956 -1.436399754 0.3236774083
Cu 0.4134837818 0.5312979173 -3.037183792
Cu 0.05004980311 3.795820534 -1.882124526
Cu 0.5738399528 -0.2381622903 2.882875567
Cu 0.944173087 -2.738204547 2.802607387
Cu 2.919668109 -2.485072519 -1.032046952
Cu -2.038083506 2.082774099 -2.210353908
