23
Energy = -116.1587627 eV, Pt22Cu1
Pt 1.568695119 1.503797217 -1.97707056
Pt -2.380976489 1.966315924 -0.7568634759
Pt -1.666546342 3.204633645 1.335131894
Pt 2.017590351 -1.788498157 1.90437235
Pt -0.5805596664 1.691056228 3.132671616
Pt 2.249904906 -2.733496087 -0.446469246
Pt 0.07096049511 -3.433044037 1.024893197
Pt 0.292105974 -3.619706972 -1.745890861
Pt -1.289336886 -1.864382848 -2.774746474
Pt 2.46545348 2.456596593 0.2011530524
Pt -2.261695044 -2.046595831 1.428076158
Pt -2.37378792 0.6061250504 1.483589334
Pt -0.002709790447 1.254891313 0.4228411714
Pt 1.832643457 0.9196407854 2.292962193
Pt -0.7845622918 0.6022348997 -2.208534093
Pt 0.8337894807 3.416897403 1.860954205
Pt -0.2524434458 -0.7779966359 2.392825193
Pt 1.287519956 -1.145907128 -2.429107042
Pt -0.1970692941 -1.295322027 -0.2982251876
Pt 2.324369224 -0.1449510407 -0.1180699647
Pt -2.037997222 -3.314675164 -0.7449888194
Pt -2.716884108 -0.6825424498 -0.8314403536
Cu 0.03410121935 3.42456791 -0.8044880792
