23
Energy = -89.06568531 eV, Pt13Cu10
Pt -1.53857414 0.02215295308 0.6978993964
Pt -0.9806350347 1.736557722 -1.284461562
Pt 0.5983666709 -0.290872998 2.284003889
Pt 2.628420537 1.097729938 1.136288092
Pt 2.307059401 0.1968975443 -2.578185083
Pt 0.828309938 -0.07672837346 -0.4055981226
Pt 1.228734596 -2.425199524 0.7522460844
Pt 1.654542019 2.348184251 -1.064619591
Pt 0.1587084315 2.103623233 1.129465393
Pt 3.282437899 -1.055480753 -0.3738911478
Pt -0.3268399137 -0.4278490457 -2.763267975
Pt -0.940421714 -2.12969262 -0.789354094
Pt 1.460815934 -2.226501539 -1.906875134
Cu -2.627089912 -0.2775566319 -1.574453219
Cu 3.975586177 1.308043162 -1.011473363
Cu -2.386617233 2.392984312 0.8242354757
Cu -3.216805395 -1.874411719 0.3629577388
Cu -1.456596711 1.198839936 2.926051416
Cu 2.973588481 -1.20966472 2.149063529
Cu -3.060799987 -0.6825790684 2.54522685
Cu -1.121391943 -2.210863952 1.828333423
Cu 0.5565257237 1.893836074 -3.313365671
Cu -3.978157027 0.495302124 0.4720650899
