23
Energy = -5713.908808 eV, Pt13Cu10
Pt 0.752057378 -1.060303016 3.754526985
Pt 2.287015022 -2.155783646 2.061856654
Pt -2.59794646 2.178042598 -1.006054828
Pt -0.6139630844 0.284248488 -1.127903493
Pt -1.373596355 1.960762816 -3.171429524
Pt -0.5444022011 -0.374507804 -3.700819653
Pt 0.6300418467 -0.3090706774 1.111705655
Pt 1.46578352 -0.9725301535 -2.127324514
Pt -1.202683404 1.744535796 1.129856507
Pt 0.9782551824 -2.575639265 -0.1709069298
Pt -1.532919649 -0.4933091524 2.509344232
Pt -0.0599417763 2.803309201 -1.013302965
Pt 0.1841515343 1.323259363 3.273689412
Cu 2.502579094 0.3716289954 2.529654844
Cu -0.1592564924 -2.702200636 2.134392766
Cu 1.038795657 1.424363105 -2.962155084
Cu -0.7683114365 -2.159192449 -2.024707916
Cu -1.412834604 -1.787937086 0.2787999507
Cu 1.873123408 1.118497079 -0.7125098861
Cu -2.711098821 -0.07052425123 -2.334752908
Cu -2.893066038 0.08974965751 0.2853557579
Cu 2.907274605 -0.9462648771 0.01321623398
Cu 1.242081618 2.304595731 1.265315144
