38
Energy = -111.8009333 eV, Pt3Cu35
Pt -1.828115263 -0.09034962044 0.07211237586
Pt 0.1233517462 -1.490515051 -1.061633829
Pt -0.01904572185 1.134772331 -1.437978358
Cu 1.687560326 2.265901507 -2.89115118
Cu -1.912805058 2.039885418 -2.843204878
Cu 1.962098039 -2.795913339 -2.165534051
Cu -3.485791251 -1.625682839 -1.057081838
Cu -1.705954198 -2.676988461 0.3659030152
Cu -3.621829142 0.8825137231 -1.416627552
Cu 0.1970002123 -3.480502985 1.729284794
Cu 3.407927354 1.234986213 -1.41329291
Cu -1.80410414 -0.4630971067 -2.537160809
Cu 1.842729633 -0.2737754248 -2.596302431
Cu -3.541422676 -1.275226781 1.473647851
Cu 1.998197829 -2.487148512 0.3758503089
Cu -1.888091063 2.67924001 2.092152034
Cu -0.02661547761 1.413198448 1.114466972
Cu 1.624620312 2.907931536 2.114756903
Cu -1.985258642 2.472791843 -0.372319092
Cu -1.624899509 -2.173299243 2.787767401
Cu -1.642241098 -2.948427604 -2.128129151
Cu -0.1903822251 3.613315509 -1.800104342
Cu 0.08613515107 -1.777949781 -3.570863314
Cu 3.540854842 -1.216007148 -1.061943604
Cu 3.452186434 1.596674263 1.05299349
Cu -0.07206478512 1.758915856 3.53103386
Cu 0.06128324256 -0.6996858802 3.883491454
Cu -3.678440758 1.251159132 1.111487644
Cu 1.71756112 2.687036545 -0.3658822565
Cu 1.891508017 -2.012866574 2.820167757
Cu -1.84794035 0.27243533 2.610361388
Cu 1.798379296 0.1037779778 0.05419541616
Cu -0.04839191438 0.7021659747 -3.926393515
Cu 0.2211832772 -3.974881649 -0.7123314031
Cu 1.823524486 0.4645299944 2.561262814
Cu -0.1991199752 3.823032309 0.6823176604
Cu 3.585725397 -0.8655213012 1.405946478
Cu 0.1065511364 -1.04195029 1.466425177
