38
Energy = -9060.565215 eV, Pt3Cu35
Pt -0.9158382743 0.8583017607 2.951360992
Pt -2.572920964 -0.1759027361 -1.925248764
Pt 1.491752568 -2.82774871 0.08546430843
Cu 1.123678105 1.620801328 -3.378331869
Cu 1.312552002 1.959059969 3.132639798
Cu -1.291447951 -1.906603137 -3.170516154
Cu -1.959729009 -2.136621711 1.111714962
Cu -2.682866397 -2.563033024 -1.224306511
Cu -3.565577624 1.575116962 -0.4634859379
Cu 0.5216799314 1.469174187 0.8510603468
Cu -3.040191833 -0.3322226895 2.430235069
Cu 2.801660422 -2.003883805 -1.867902515
Cu -0.7664735995 -3.813312625 -0.276305268
Cu 0.624461236 -3.156567135 -2.222754118
Cu 0.01719468231 -3.324216233 2.02994314
Cu 3.02641753 0.3794293378 -2.43708453
Cu -1.669630775 0.3214689741 0.4918406515
Cu 2.672964771 2.587729028 1.181046182
Cu 1.054853278 -0.4422493878 3.734386782
Cu 0.2703584996 -0.9442053145 1.451514753
Cu -2.1655534 2.233727026 -2.413090922
Cu 2.189686242 -2.179692173 2.383528578
Cu -1.11792469 -1.586334874 3.381142326
Cu 0.775444787 3.825695873 0.2423806941
Cu -0.000262471246 3.341568015 -2.040439256
Cu -0.6031125453 3.208864498 2.184998548
Cu 1.967094708 2.176933543 -1.13742325
Cu 3.799996932 0.8622291294 -0.1605264632
Cu -0.5205347476 -1.437810895 -0.8759958778
Cu -3.821465261 -0.8198244412 0.1310345316
Cu -1.434784785 2.792904951 -0.1120890124
Cu -2.784501437 2.062595684 1.835134274
Cu 2.512330931 0.2177551322 1.840470716
Cu 3.582636963 -1.516467354 0.4304244816
Cu 0.9031740337 -0.7865382902 -2.895098726
Cu -1.030865385 0.4965059376 -3.763776734
Cu -0.2673166002 0.976752355 -1.470868496
Cu 1.668020254 -0.2858866638 -0.5134958569
