13
Energy = -49.55008348 eV, Pt6Cu7
Pt 1.046633069 0.8904373722 0.6587401224
Pt -0.4419097664 -1.365000793 0.5027318494
Pt 2.045322139 -1.339076816 -0.1207546547
Pt -0.984049576 0.5014090025 2.175551912
Pt -1.432954615 0.9693700085 -0.3066275606
Pt 0.4148448388 -0.1532563388 -1.707288146
Cu -2.877610229 -0.7324365819 0.908222208
Cu -1.927754989 -1.237858663 -1.559365342
Cu -0.5213228876 2.83781301 1.155181131
Cu 2.696653965 0.8827403463 -1.284089664
Cu 0.4736432268 2.400736205 -1.307683497
Cu 0.3403630383 -2.687509039 -1.531039528
Cu 1.225914819 -0.9718077287 2.387849011
