23
Energy = -85.19420334 eV, Pt8Cu15
Pt 1.053017578 1.502033456 0.439163103
Pt 1.903693195 0.05539120249 -1.705314602
Pt 0.3518307566 -1.007850038 0.07753273045
Pt -1.413002995 0.6932044618 1.033424287
Pt -0.6534310044 0.8823971435 -1.521271796
Pt -0.06561850126 -1.565534924 -2.413807994
Pt -2.094469277 -1.255965 -0.7418292484
Pt 0.6662830502 -0.1954878005 2.488085996
Cu -1.324075348 -1.883507246 1.777521473
Cu -3.120345392 1.093667971 -0.8423884787
Cu -2.196041667 -0.2931194427 -3.133593616
Cu 2.027470797 -2.482479065 -1.056526798
Cu 3.398771791 1.660882831 -0.3851426926
Cu 2.747093993 -0.5482211989 0.7964350496
Cu 1.275022682 -2.622078778 1.711463978
Cu -0.9867094653 2.971066634 -0.06147882526
Cu -0.1029561225 2.239228593 2.609777519
Cu 1.274153687 2.535016696 -1.901369876
Cu -3.522277917 -0.6091361402 1.282696572
Cu 0.4456212321 0.5733232973 -3.770187125
Cu -1.684140211 0.08491824583 3.432712643
Cu 2.581472772 1.483959603 2.404769231
Cu -0.4865936868 -3.307064583 -0.4506805749
