38
Energy = -169.3366121 eV, Pt24Cu14
Pt 0.3947270109 2.800840949 -1.826953421
Pt 1.607293642 0.02584207788 -0.8676907424
Pt 1.184559609 0.9767316447 -3.42616058
Pt -1.123741686 1.309443502 3.037780174
Pt -1.357825898 -2.483103536 -2.729405414
Pt 3.014873155 -1.358026113 1.133627968
Pt -0.7019972156 -3.48075253 1.769788932
Pt 2.875619409 2.096000428 -1.62975945
Pt -2.951787047 -2.233863091 1.337911267
Pt -0.1257687111 -1.91618111 -0.2866153145
Pt 1.025306563 -1.602917536 -2.965185308
Pt -1.27437831 -1.30735311 3.072995941
Pt -1.720723086 0.03299858136 0.6784830311
Pt 1.667765292 -3.531792569 0.7618530779
Pt -1.923808147 -3.778504637 -0.5334101711
Pt -0.8350802638 0.09936411855 -1.907438157
Pt 2.774337207 -2.33592174 -1.227586153
Pt 0.02881837973 1.979660783 0.5957962926
Pt 0.7630980903 -0.25012302 1.771453706
Pt -2.563159796 2.510363436 1.288219023
Pt -2.114054641 2.228195573 -1.194725786
Pt 2.823065476 1.408337523 0.973360123
Pt -3.003650887 -1.431372234 -1.109912276
Pt 1.337076297 2.111194923 2.929434265
Cu 4.268552538 -0.003379370627 -0.6503812279
Cu -0.8814038552 -0.4799406398 -4.387282857
Cu -3.179574578 0.4642525727 -2.832725622
Cu 3.315598456 -0.3282197922 -2.916099838
Cu -4.020173288 0.7888929037 -0.1543585308
Cu 1.824043021 3.710853127 0.2475550569
Cu -3.461901507 0.1910069878 2.497901178
Cu -0.540344472 3.790472429 2.381940258
Cu 1.312082569 -2.342671399 3.081260412
Cu -1.240865034 2.001736125 -3.672643154
Cu 2.927636278 0.07330247098 3.255570664
Cu -0.9629593647 4.256883286 -0.09617743112
Cu 0.6144837246 -3.933245681 -1.66278993
Cu 0.6341884391 -0.04637051205 4.370165993
