13
Energy = -2916.056017 eV, Pt2Cu11
Pt -1.614810711 -0.9254102404 1.288084813
Pt 0.4227851522 -0.01487517011 0.1527946332
Cu 0.7387734493 -1.584230749 1.992810338
Cu 0.02586928267 1.528164846 -1.653737809
Cu 0.853986577 -0.8416828847 -2.068135014
Cu -0.08460337436 0.7720510008 2.404835355
Cu 2.383395987 0.8612577946 -0.9396017014
Cu -0.1653348314 -2.348532819 -0.2428569613
Cu -1.547481305 -0.4646157188 -1.212550321
Cu 2.275104788 -1.537626895 -0.07570771827
Cu 0.9351828576 2.296867269 0.5948010344
Cu 2.325286843 0.4021037778 1.570077264
Cu -1.497586517 1.464011145 0.4238135268
