13
Energy = -36.11359373 eV, Pt2Cu11
Pt 2.302162636 -1.003577044 0.1608630054
Pt -0.03965705763 0.01819018147 -0.004272223123
Cu -2.290242517 1.000150746 -0.1629740887
Cu 0.196634657 -2.428383407 -0.3567281817
Cu -0.17788057 2.449230115 0.3593919414
Cu -1.880918964 -1.374587292 0.8508522525
Cu -1.047743745 0.7405187131 2.122536441
Cu 1.529242177 0.9545858692 1.677244833
Cu 0.4888069133 -1.381494489 1.97749211
Cu -1.525986412 -0.973083338 -1.698236326
Cu 1.056497541 -0.7393159773 -2.099602975
Cu 1.88009429 1.351474038 -0.8425385073
Cu -0.4734507898 1.39016581 -2.001975526
