13
Energy = -3102.52865 eV, Pt7Cu6
Pt -2.244311931 1.021737254 0.1328960379
Pt 1.816114256 1.406350571 -0.9182731821
Pt 1.73262519 0.783096288 1.581920445
Pt -1.723646102 -0.7983864539 -1.59822037
Pt -0.6246403645 1.555912127 -1.826911312
Pt -1.809225927 -1.410483831 0.9357188138
Pt 0.639845427 -1.53921895 1.82496121
Cu 0.7627828647 -0.5248825923 -2.233668701
Cu 0.03054403993 -2.35852826 -0.5259786698
Cu -0.7628278585 0.5450844083 2.222144307
Cu -0.04140225407 2.351652093 0.539672263
Cu 0.01648809192 -0.01211399109 -0.007803614422
Cu 2.209968462 -1.002548816 -0.1307504614
