13
Energy = -46.92584598 eV, Pt7Cu6
Pt -1.592036684 -1.940413162 -0.1146190745
Pt -0.1580012984 -1.198674416 -2.227948145
Pt 0.08660698186 0.1055581618 0.006235471677
Pt -2.143754739 0.2201204287 1.33469056
Pt 1.041931374 -2.307825955 -0.1177169492
Pt -0.185332625 -1.43096221 2.084115498
Pt -2.126862607 0.3636822938 -1.330310443
Cu -1.080461468 2.287676466 0.116387135
Cu 2.112079575 -0.4038520646 1.338068308
Cu 1.632271847 1.989450282 0.1175162799
Cu 2.129097918 -0.2592144527 -1.346905431
Cu 0.1284625642 1.170213047 2.242432561
Cu 0.1559991613 1.404241582 -2.101945773
