23
Energy = -5650.311496 eV, Pt11Cu12
Pt 0.683224007 -0.5282062074 -0.981430485
Pt 0.9553826881 -0.290697623 -3.621504362
Pt -0.6894648254 0.5320845167 0.9757890325
Pt 0.8460833246 -1.65838897 1.492220166
Pt -0.2083942539 -2.903096569 -0.5608287023
Pt 1.336236331 0.6896626322 2.551764023
Pt 1.438322654 -2.542687789 -2.59555178
Pt -1.108263182 0.7720384132 -2.393309038
Pt -2.183553634 2.683643182 1.464629767
Pt -0.9770004796 1.632406074 3.413064859
Pt -0.6195745371 2.597835135 -0.643239399
Cu -1.629803218 -1.91532903 1.416946305
Cu 0.2927623202 2.94917377 1.746771067
Cu 1.601292707 1.65039131 0.1804683515
Cu -2.787811645 0.3052750171 2.184329689
Cu 2.900924028 -0.5347511792 -1.979847328
Cu 2.329353983 -2.541757437 -0.3287494475
Cu 2.79027887 -0.3619086676 0.6314408885
Cu -0.6360408472 -0.7772621936 3.315208245
Cu -1.934692222 -1.006865829 -0.7620794133
Cu -0.9014299494 -1.767455593 -2.812997303
Cu 1.23850054 1.70376499 -2.20978171
Cu -2.752204096 1.247442295 -0.4497790698
