23
Energy = -80.51729225 eV, Pt9Cu14
Pt -1.367330359 2.124575156 -0.5690229413
Pt -1.356720624 -0.5529634882 -1.253223293
Pt 0.9755945242 2.636556215 0.6272881501
Pt 2.422762433 0.3897983183 0.8282748523
Pt -2.698915333 0.3557321902 0.941164167
Pt 1.039447665 -1.355370878 2.319391842
Pt 0.931020266 0.8670714625 -1.44863986
Pt -1.302597187 -1.922586969 1.146493907
Pt 0.9707721409 -1.618289186 -0.3951387973
Cu -1.004976928 -3.074259407 -1.090574287
Cu 0.50409195 -1.206299078 -2.864746961
Cu -3.407377909 0.8568742396 -1.464757502
Cu 0.5427138079 3.308756306 -1.802171741
Cu 0.9880105199 1.209665412 2.816608894
Cu 3.045175844 -0.5602683953 -1.436538009
Cu 3.043652334 -2.095847931 0.9135598694
Cu -3.365840607 -1.740390492 -0.3638176551
Cu -1.075358188 1.325770621 -2.955663751
Cu 2.975010291 2.195467012 -0.9054461605
Cu 0.652892153 -3.579827476 1.117775844
Cu -1.201125225 2.211662897 2.009540522
Cu -1.163736358 -0.1259530011 3.000411094
Cu -0.1459482529 0.3493750303 0.8298387138
