13
Energy = -37.4026007 eV, Pt1Cu12
Pt -1.538575606e-09 1.869752686e-09 -1.715322417e-10
Cu -2.425285479 0.4282231062 -0.245916982
Cu 1.399786409 0.3784305815 -2.005803616
Cu -1.011528139 -0.5844308173 -2.181997087
Cu 0.6477642339 -1.8896239 1.461363349
Cu -0.6477642105 1.889623915 -1.461363337
Cu 0.8877210456 -2.016939064 -1.126839825
Cu -0.887721042 2.01693906 1.126839832
Cu -1.39978643 -0.378430607 2.005803597
Cu 1.476303416 1.986165593 0.03917007041
Cu 1.011528114 0.5844308253 2.181997097
Cu 2.425285483 -0.4282230917 0.2459169789
Cu -1.476303399 -1.986165606 -0.03917007544
