13
Energy = -58.50665939 eV, Pt10Cu3
Pt -0.4350509431 -1.764857452 -1.775082347
Pt -0.1378338455 0.09282454818 -0.0124929285
Pt 1.983306558 -0.8000255907 -1.319436153
Pt 0.2144326382 0.7352483146 -2.442620208
Pt -0.1452109981 -0.7703590065 2.416684634
Pt 0.7852854163 -2.334159571 0.4994804301
Pt 0.5081166005 1.742929026 1.804712656
Pt -1.753028189 -1.784196875 0.5445157707
Pt 1.796511015 1.716128513 -0.5313723517
Pt 2.162133953 -0.1864306368 1.266835729
Cu -2.031436387 0.7817487776 1.456950567
Cu -0.7200379816 2.461068555 -0.534096759
Cu -2.227187837 0.1100813979 -1.37407904
