38
Energy = -142.3713545 eV, Pt0Cu38
Cu -0.9064615278 -1.018889876 2.974607871
Cu 2.830541371 -0.5740570378 -2.01989456
Cu 2.516211881 -3.258321529 -2.138220417
Cu 0.5948830073 3.419440304 -1.181874561
Cu -4.028275432 1.007937393 -2.411491164
Cu 3.586891044 1.826519079 1.592386082
Cu 1.116488389 1.975231446 0.8525557369
Cu 0.3714381718 0.6647640383 -1.467463649
Cu 3.918506668 -0.7248426223 2.230413911
Cu 3.597551565 -2.223046916 0.06820186486
Cu 4.691432419 0.1910744802 -0.2059280029
Cu 2.837913898 1.957735864 -1.061666765
Cu 2.49481288 4.055783984 0.6202861444
Cu -1.184828992 2.283731182 0.2534129856
Cu -2.738378863 0.7950860412 1.786861209
Cu 1.553113842 0.3975474191 2.883444346
Cu 1.777364269 -4.129416117 0.3271753345
Cu -3.636573588 -1.548571135 -1.764909576
Cu -2.740208155 -1.608463396 0.8880092868
Cu -2.558257575 3.432689813 2.053392519
Cu -1.841233405 -2.861246943 -3.242156638
Cu -0.5960655577 1.796060226 2.782557342
Cu -4.675611967 0.06885533035 0.05280895085
Cu -0.01466317502 -3.910818222 -1.61067041
Cu 0.5667393045 -1.631795413 -3.072056827
Cu -2.518609943 -3.732519668 -0.7614056923
Cu -0.5886994434 -3.006880229 0.9806380068
Cu -2.279721198 0.3883848193 -0.7259229943
Cu -3.662967313 2.489358127 -0.2222083417
Cu -1.696464292 2.348831835 -2.246839192
Cu 1.764879793 3.078109534 3.046197293
Cu 1.136998861 -1.85375595 -0.5827510498
Cu 1.555655317 -2.004952224 1.977282952
Cu -0.03323480432 4.185312775 1.464805166
Cu 2.27469364 -0.04638904228 0.4271740277
Cu -1.706658458 -0.1656693675 -3.17387603
Cu -1.143711382 -1.643601715 -1.161618963
Cu -0.3134910262 -0.2068508153 0.8824456504
