23
Energy = -5616.335472 eV, Pt10Cu13
Pt 0.3731955468 0.3913770278 1.190526865
Pt -1.776358904 -1.833360705 -2.935966022
Pt 1.904281303 -1.728227259 -0.9802479504
Pt 0.6940279165 -1.644434813 -3.316335065
Pt -2.229372751 0.5719136801 0.4833159703
Pt 2.597927611 0.7947849358 2.603110369
Pt -0.7655572691 2.689278004 0.9647989288
Pt 0.5742496174 2.184283151 3.18594933
Pt -0.3549863158 -0.4127366727 -1.191164299
Pt 2.709026626 0.5145613287 -0.001325341594
Cu 0.08002335563 -2.176862356 0.7277484538
Cu 0.8032084768 1.939851017 -0.9317932553
Cu -0.7670794877 0.4592220686 -3.422228048
Cu 0.5005591588 -0.3486632286 3.508466644
Cu 1.824627743 0.3466755017 -2.427382205
Cu -2.880248068 0.04517253379 -1.875746026
Cu -1.531410966 -1.146083272 2.134602064
Cu 1.848534072 2.674293924 1.122820554
Cu -0.2152596861 -3.083762722 -1.492575888
Cu -1.520378068 1.987328301 -1.436539148
Cu -2.191355237 -1.858573708 -0.336779468
Cu -1.610777062 1.161072967 2.841595481
Cu 2.209108774 -1.408521626 1.573471944
