38
Energy = -166.44999 eV, Pt30Cu8
Pt 3.262283239 0.2351095177 -2.021833924
Pt -3.275217894 -1.626299841 -2.304027961
Pt -1.11451423 -0.004588716585 -2.073613212
Pt -1.720062707 -1.395445659 -0.08439058981
Pt -1.645322037 2.677973263 -1.794641911
Pt -3.265034732 0.8337067677 -0.5802268306
Pt -4.34421736 -1.691231578 0.3138725365
Pt 0.03226478749 -3.462656761 0.4070088624
Pt 1.081822381 -1.155955524 4.301611424
Pt 1.044799399 -0.7862911819 -0.4275643609
Pt 0.4625823804 3.738407949 -0.4246111032
Pt 2.437625237 -2.590356371 -1.248419583
Pt 0.8680517066 1.525813979 -1.955207989
Pt -0.6548234032 1.109807047 3.394957028
Pt -1.93209263 2.877523649 1.244486327
Pt -1.737138355 -1.415535446 4.2790271
Pt -0.568310587 1.441564357 -4.288145595
Pt 3.763068739 -0.5570285579 0.5930109857
Pt -0.02075418442 -3.563280752 3.299830446
Pt 2.149896182 -2.399773222 1.794873527
Pt -0.475927081 1.116612167 0.4400052879
Pt -0.4624618891 -2.673184211 -2.179080375
Pt -2.775318851 0.05050947445 2.008722344
Pt 1.153942431 -0.82478052 -3.39161236
Pt -2.465424085 -2.948417969 2.015363702
Pt 0.9632001476 2.94647901 2.190329593
Pt -2.627834863 -3.838962969 -0.665305394
Pt -0.344587774 -1.250055599 2.007717663
Pt 1.630911809 0.3091068212 2.050677173
Pt 2.426154329 1.834185931 0.09955504646
Cu 2.852290248 3.189252312 -2.12566414
Cu 1.980366102 1.438226401 4.357755328
Cu -3.129205878 0.8952252068 -3.415401015
Cu 3.626445741 -0.6215274383 3.418669308
Cu 0.5216019222 3.740812654 -3.25506904
Cu 3.717559232 1.818070446 2.398561642
Cu -1.486204181 -1.16067156 -4.352724656
Cu 2.165550729 1.683716124 -4.192940956
