38
Energy = -156.8419756 eV, Pt23Cu15
Pt 2.498568443 -1.877823116 -2.843533569
Pt -1.622136782 0.1779981658 0.9772783446
Pt 1.733136595 2.497196239 -1.412171262
Pt 3.060751592 0.1190102827 1.305805439
Pt -0.2080486172 0.5107560494 3.271661573
Pt -0.7857987009 -4.119612067 -0.4925522272
Pt -1.703261412 -2.50953392 1.423970892
Pt 1.598630487 -2.916505177 -0.5580594093
Pt -2.125162469 -1.812731477 -3.173691526
Pt 0.7435133846 1.484102014 0.9253137175
Pt -2.049657329 0.8313368524 -3.58010402
Pt -0.5885022199 3.762083227 -1.735920543
Pt 0.2339968613 -0.5445274523 -3.339008685
Pt -0.7260965685 -1.507717972 -0.9356581043
Pt -3.077537949 -0.1381679418 -1.315114821
Pt 0.2973039982 2.121252906 -3.638864497
Pt 0.6790812474 -1.186127851 1.34804099
Pt -1.567795345 2.870060773 0.5650743763
Pt -3.053283225 -2.771163161 -0.8610078943
Pt 1.639036015 -0.2077653651 -0.9816336837
Pt 2.567486292 0.7614244064 -3.259564939
Pt -0.6617485679 1.154798987 -1.354815605
Pt 0.1599609707 -3.174736361 -2.80331831
Cu -2.392349675 1.802620176 2.775714061
Cu -3.833763076 -1.088895355 0.985956008
Cu 3.792466554 -1.513177384 -0.5797177113
Cu 0.7688398953 3.995786733 0.4816284238
Cu 2.009227584 -0.8047109085 3.481474674
Cu -0.1500451067 3.037641271 2.727954445
Cu -0.2707695193 -2.059037473 3.538639781
Cu 0.5840366106 -3.709427829 1.701105304
Cu -2.455465636 -0.7637281637 3.186764663
Cu 2.87397409 -2.433844195 1.647578298
Cu -2.855203462 2.442585533 -1.659242849
Cu 2.070039901 1.719582352 3.081984869
Cu 3.856839595 1.052893092 -0.9835860673
Cu -3.757861548 1.497659669 0.5771350265
Cu 2.997376469 2.659259708 0.8446984059
