38
Energy = -9573.296194 eV, Pt17Cu21
Pt 2.1751143 3.549607159 0.08715877579
Pt -2.178816945 2.444833344 0.2376084962
Pt -1.591854918 -2.646335991 -2.501566464
Pt 0.8897813016 2.56845804 -1.929135203
Pt 0.5467758114 -1.283812487 3.787927667
Pt -3.90066235 0.6053505842 0.7135391722
Pt -1.612748021 3.055769537 -2.188145933
Pt 1.683689776 2.843470155 2.495197597
Pt -2.85730942 -1.06159235 -0.9321126043
Pt -0.1345666176 1.103632949 3.073000724
Pt 1.700107639 -2.912036698 2.191468428
Pt 0.213402514 -0.9247438701 -3.096884595
Pt -0.8124850371 -2.404774397 1.899853321
Pt 2.701274594 -1.474586166 -2.675679225
Pt 2.961016971 1.231208751 0.9259657619
Pt 2.278939152 -2.293349448 -0.2572255897
Pt 4.016696393 -0.4413617237 -0.7442394927
Cu -1.895002687 -0.6777356539 3.389792262
Cu 1.522178591 0.1432249032 -1.042168379
Cu -0.2887562687 4.070143016 -0.2565970155
Cu -0.4668446673 1.428356675 -3.728330396
Cu 1.031308604 -0.5638986792 1.356209863
Cu -3.37818232 1.308490167 -1.687434161
Cu 3.296876178 1.877422993 -1.507113807
Cu -1.422518223 0.02098289033 1.024398718
Cu -0.2735977623 -1.595479324 -0.5715390956
Cu -0.7612031243 3.357420592 2.12285974
Cu 0.3768887881 -3.879616816 0.234625042
Cu 0.8564096326 -3.192573226 -2.16227418
Cu -2.564283635 1.614157386 2.592087193
Cu 2.311930348 0.4722140087 3.264444318
Cu 3.462184071 -1.146264568 1.670514447
Cu -0.942713809 0.7232066772 -1.368013753
Cu -3.202346018 -1.686147966 1.489615316
Cu -2.049429494 -3.307567904 -0.1133219611
Cu 1.994468579 0.8387181831 -3.40639942
Cu -2.229677972 -0.3108189247 -3.2597775
Cu 0.3717571215 1.765206026 0.5482485723
