38
Energy = -159.8818062 eV, Pt21Cu17
Pt -2.298409818 -2.456052956 -0.7897115404
Pt -0.04953263909 -3.614246703 0.1954266849
Pt 2.393347638 -2.823781037 -0.7194401714
Pt 2.982101419 -0.2127659472 0.04090936933
Pt -3.521146873 1.901948087 -1.63093102
Pt -0.07277429127 -3.267174045 3.134685244
Pt -2.202030035 0.1610404409 -0.0345235171
Pt -2.112798055 0.8044298862 2.612519761
Pt -1.941670326 2.770162346 0.7182230101
Pt 1.59270374 1.408424791 -1.436970167
Pt 0.2905622501 0.3127616388 -3.590853185
Pt 0.476542435 3.579674337 -0.181943533
Pt 2.58042525 0.462851571 2.710071151
Pt 0.1361773062 -0.351651626 3.599867267
Pt 2.567143266 -0.8258776702 -2.641604024
Pt 0.2186209658 -0.9135663308 -0.9256095679
Pt 1.334988025 -1.626513074 1.485611637
Pt -3.81799236 -1.354211408 1.505753129
Pt 0.3202066841 0.8709125469 0.9364410622
Pt 2.754123945 2.458757273 0.7858010844
Pt -2.127224363 -0.4892014412 -2.682827158
Cu 4.180437648 1.455848751 -1.623591805
Cu -4.44018299 -0.6349755165 -1.076611364
Cu -1.846781475 2.080652112 -3.789524751
Cu 3.897016304 -2.020410005 1.723374683
Cu 2.771006775 3.692704584 -1.771030674
Cu -2.2782473 -1.763122316 3.724702127
Cu 0.4812760549 3.165826597 -3.060546321
Cu -1.739103612 3.971978806 -1.815989975
Cu 0.3683184304 2.500091285 2.626379111
Cu 2.662015448 1.778042632 -3.768904803
Cu 2.315387081 -2.116760755 3.83865864
Cu -1.139045997 -1.473557949 1.473973412
Cu 2.205442278 -4.048701746 1.822707018
Cu -4.330742026 1.287350628 0.9292913407
Cu -2.386766538 -3.669521566 1.735408761
Cu -0.8665165396 1.613927784 -1.499746848
Cu 0.08195737249 -2.530288023 -2.622658918
