23
Energy = -5743.78743 eV, Pt14Cu9
Pt -1.679666478 0.09745777906 2.482556032
Pt -0.6837013207 1.083939879 0.3072227122
Pt -2.570468994 2.682818104 -0.7176557126
Pt 0.1693763859 -0.1800192078 -2.742593927
Pt -2.450679282 2.598510865 1.8342514
Pt 1.160442066 -2.590018247 -2.463506043
Pt 0.6620423745 -1.087189836 -0.3282444631
Pt 2.954458681 -2.570342497 -0.6743612309
Pt 0.9668350617 -0.04741741543 2.198447358
Pt -3.42722395 0.6361337062 0.5520599194
Pt -0.152277354 2.214166498 2.751256996
Pt -2.165527704 0.2592878203 -1.714659892
Pt 2.944823748 -0.1526802006 0.4375213698
Pt 2.110291287 -2.30590176 1.66109194
Cu 0.6327227824 -3.523798337 -0.1178687615
Cu -0.4376434457 3.508538752 0.5007270703
Cu -0.344778467 -2.167125436 1.914252033
Cu 1.501834038 1.299660718 -1.137449603
Cu -1.899144826 -1.305447391 0.3081644963
Cu -0.5547305735 2.191938074 -2.048460616
Cu -1.175487867 -2.129308806 -1.855222698
Cu 1.689616018 2.097174529 1.108224338
Cu 2.635846157 -0.5901005667 -2.134122752
