23
Energy = -72.47825223 eV, Pt3Cu20
Pt 0.07729641451 1.209333375 0.8177959896
Pt 0.9924167594 -1.060336517 0.167479303
Pt -1.069712326 -0.148997436 -0.9852772922
Cu 2.610133815 0.8291032106 0.7793096343
Cu -0.9438521182 2.399754268 -1.207414608
Cu 2.983533767 -1.791866128 1.373000978
Cu -2.476915932 1.255128343 0.630124384
Cu 0.565829878 -2.847903313 1.785502944
Cu 1.298124217 2.388265057 2.570697262
Cu -3.178080903 -1.193323681 -0.3073916214
Cu 1.077069127 -0.3155221964 2.61684887
Cu -0.7061653821 0.652291787 -3.270256481
Cu 1.744262011 -3.259479203 -0.5751243957
Cu 3.037753415 -1.002292173 -1.177361591
Cu -1.095628474 1.272804318 2.966188807
Cu -2.053631341 -1.581038164 -2.698207825
Cu -1.25801444 -0.9392698995 1.507865255
Cu 0.6333162506 -1.511920254 -2.328203015
Cu -0.9299061439 3.372905384 1.325209715
Cu 1.376291034 3.118419122 0.003322360248
Cu -3.042386763 0.8712128711 -1.995567634
Cu -0.8997484021 -2.65654785 -0.4906651496
Cu 1.258014906 0.9392672441 -1.50786628
