38
Energy = -160.7332759 eV, Pt20Cu18
Pt -3.719132934 1.395610616 1.244224025
Pt 0.4928084658 1.785280192 -0.536789165
Pt -2.168234387 -1.947448264 -1.576124112
Pt 4.041966017 0.9089341372 0.04068068658
Pt -0.8057598933 -4.015544971 -0.7705485008
Pt 3.439481708 -0.2344403348 2.29379613
Pt 1.830373854 -0.4468335621 0.2599019798
Pt -0.2031217286 -2.896802883 -2.997753706
Pt -2.116301275 1.559225554 3.232947756
Pt 1.223373145 -1.57342383 2.609285465
Pt -1.512720886 2.762616433 1.001622638
Pt -1.842412813 0.4218125779 -0.2943140667
Pt -0.4981747498 -1.77900479 0.5412158308
Pt 1.47903921 -2.797983013 -1.018051469
Pt -0.1347294253 0.5921861367 1.825983891
Pt 2.189499941 1.92565887 1.556423758
Pt -1.180794619 1.583433271 -2.585285933
Pt 0.1450248461 -0.5798573085 -1.839138419
Pt 2.46452099 0.775025686 -2.031672798
Pt -2.47561787 -0.7407081355 2.066048271
Cu -1.067332123 -2.817540537 2.812806198
Cu 0.8401512584 -3.841718017 1.304380309
Cu 0.176194349 2.856950194 3.016075708
Cu 0.7689830137 0.6177981537 -4.020016482
Cu 2.068060115 -1.544160403 -3.250003425
Cu 3.719116909 -1.383812707 -1.226543989
Cu -4.044165324 -0.8961518862 -0.03509410295
Cu 1.079325834 2.862102917 -2.78812953
Cu -0.8715987276 3.821020469 -1.301685347
Cu 3.104191466 -2.544551181 1.064030176
Cu -2.734819516 -3.029450054 0.7547748702
Cu 2.751465352 3.04211515 -0.7531952419
Cu -0.7530765803 -0.5545046566 4.048603146
Cu -3.117901852 2.527098297 -1.069258353
Cu -3.392319556 0.2361910268 -2.335097704
Cu 1.540358615 0.7337021275 3.807200604
Cu -1.491202542 -0.732788304 -3.817726838
Cu 0.7859817589 3.982324155 0.7498258557
