13
Energy = -3280.384264 eV, Pt13Cu0
Pt -0.605411809 1.517216425 -1.96204662
Pt 2.484226389 -0.4681635572 0.3571249221
Pt -1.095086356 -1.121652651 -2.015137027
Pt 0.8144150657 -2.348684962 -0.5818101849
Pt 1.433260724 -0.2236917045 -2.100909751
Pt 1.095086355 1.121652653 2.015137026
Pt -1.606725119 -1.921094897 0.4959081065
Pt -0.8144150679 2.348684961 0.5818101861
Pt -1.433260726 0.2236917023 2.10090975
Pt 1.606725121 1.921094895 -0.4959081059
Pt -2.484226389 0.4681635554 -0.3571249241
Pt 0.6054118118 -1.517216421 1.962046622
Pt -2.690992019e-09 1.507534503e-08 5.189959464e-09
