13
Energy = -59.93991942 eV, Pt13Cu0
Pt -1.914485562 1.012745601 -1.407582357
Pt 2.122237211 1.446744542 0.2742921203
Pt 0.3953507255 1.040631745 2.330875393
Pt -0.6946798742 -1.42950996 2.036201825
Pt 0.6946798682 1.429509966 -2.036201823
Pt 2.099481161 -0.7724056483 -1.291419798
Pt 0.3585306598 -2.550028694 -0.202499729
Pt -2.122237209 -1.446744545 -0.2742921167
Pt 1.914485563 -1.012745607 1.407582353
Pt -0.3585306566 2.550028694 0.2024997332
Pt -0.3953507226 -1.040631751 -2.330875391
Pt -2.099481163 0.7724056572 1.291419792
Pt -2.703734486e-10 -1.839611892e-09 -1.346630286e-09
