38
Energy = -9723.626049 eV, Pt22Cu16
Pt -3.032760289 -0.2100304156 -1.216308719
Pt -0.07555563616 1.709299102 2.779736072
Pt 3.033087929 0.2486726844 1.20587202
Pt -1.184591008 3.012262308 -0.5781426733
Pt 3.292073462 2.451170553 -0.1571304494
Pt -0.3164167086 -3.820218424 -1.401893003
Pt 1.177812445 -2.986166674 0.5633950452
Pt -2.335114722 -2.47835352 -2.239514896
Pt 3.898739673 0.1632244183 -1.247813455
Pt 0.0555108878 -1.671107395 -2.824879761
Pt 2.327614949 2.540145075 2.234789649
Pt 0.2958768789 3.844011619 1.372021802
Pt 0.1791902166 -2.783482841 2.946454855
Pt -3.891516362 -0.1070363949 1.221852349
Pt -2.476073654 0.8113474957 3.134040638
Pt -0.2084911954 2.830122861 -2.964561408
Pt 2.544383398 -1.942578565 2.499913362
Pt 2.475235796 -0.7730484824 -3.183837188
Pt -2.567763572 1.984132598 -2.506675011
Pt 1.914900824 1.565612269 -2.181469435
Pt 2.103532021 -2.960107207 -1.868892144
Pt -1.923458162 -1.511572664 2.138387176
Cu -1.233637453 -3.661330686 0.9779397885
Cu -0.4291263157 -0.5244707946 3.935635584
Cu 0.5271257768 -0.6068772715 1.594531742
Cu -3.236125895 -2.347268764 0.1327119825
Cu -0.8866628758 -1.528016083 -0.3247888876
Cu -2.06998782 2.938342305 1.803902382
Cu 1.485487935 -0.6818404746 -0.7822616904
Cu 1.228208244 3.723893049 -1.001284652
Cu 3.476653447 -1.994996332 0.07515460608
Cu -0.5372486242 0.6456217285 -1.622786247
Cu 0.4042414871 0.5742854959 -3.963596644
Cu -1.951463291 -0.2685998758 -3.508534751
Cu -1.485616758 0.717806353 0.7468024679
Cu -3.47683644 2.024657147 -0.1001673034
Cu 0.8902543476 1.567215092 0.2938882691
Cu 1.923113429 0.3140828329 3.488876035
