23
Energy = -90.72061439 eV, Pt10Cu13
Pt -0.8282368711 -2.908321372 0.3471869892
Pt 2.628776037 -0.02345960139 1.522253815
Pt -0.004331420978 0.9199632563 -2.194172143
Pt -0.8388313188 -1.809238653 -2.299699817
Pt -1.775280102 1.301204626 2.089929372
Pt 0.9801760375 -0.9864758857 -0.4136866894
Pt 2.618243747 1.069252705 -1.109293844
Pt -1.785813346 2.393916049 -0.5416170603
Pt 0.01325720588 -0.9047270069 2.200175731
Pt -1.419694539 -0.2646371593 -0.1043475067
Cu -2.723087441 0.3161683051 -2.234175326
Cu 1.867290165 -2.742801524 1.229689096
Cu 0.86729231 1.590285592 3.003743455
Cu 2.404575254 2.737796579 1.127062125
Cu -3.793458462 0.5661347467 0.2501201476
Cu -0.1860682884 3.517018178 1.460992037
Cu 1.851066017 -1.059658708 -2.823776117
Cu -2.706862726 -1.366975102 1.819290714
Cu -3.224234195 -1.923659819 -0.786009709
Cu 0.8512673899 3.252745626 -0.9999107754
Cu 3.428691251 -1.606160155 -0.6808020248
Cu 0.4583252173 1.289269826 0.5333718508
Cu 1.375411388 -3.307153125 -1.378896436
