38
Energy = -123.5133934 eV, Pt5Cu33
Pt 1.310193369 1.687646123 -0.6081220686
Pt 0.3672139102 -0.1450154181 -2.185790939
Pt -0.5712145275 -1.223573531 1.76306701
Pt 0.7302094445 1.021059976 1.83240656
Pt -0.7955584135 -1.944247461 -0.7203159726
Cu -3.115456638 1.81428808 -0.245069453
Cu -1.847242425 1.144545035 -2.367263229
Cu -0.5442620701 0.4537118602 -4.460296393
Cu 0.7604785521 3.51045681 1.139317641
Cu -0.9011269747 2.983289646 -0.7843502626
Cu -2.788801365 0.06240200516 1.594720864
Cu 2.919917412 2.395595635 -2.372883689
Cu 1.336731837 4.109355283 -1.313296346
Cu 0.6115871849 -1.793807822 -4.037425373
Cu 2.568415967 2.474073361 2.678882095
Cu 3.153771176 3.14682261 0.2157787134
Cu 0.9218023536 -3.139463294 0.8277856001
Cu 1.356324512 0.5985647117 4.20648792
Cu -0.9400984432 -3.577177574 2.491939985
Cu -2.696499181 -2.451887412 0.9551220826
Cu -0.9615109458 0.5601925807 -0.0757153339
Cu 3.159089893 0.7192926486 0.9469900831
Cu -1.744357559 -1.357591925 -3.051406159
Cu -3.013890951 -0.6606682494 -0.8969200656
Cu -2.416173491 -1.697689743 3.41653965
Cu -1.166516615 -4.304511438 -0.01439287477
Cu 0.1798103611 2.779701731 3.554868942
Cu -1.48304134 2.314495 1.664286756
Cu -1.14844058 0.5567139768 3.545130697
Cu 1.968208888 0.5459845431 -3.965146871
Cu 0.3921805522 2.327344623 -2.937587627
Cu -0.5619385378 -3.609671478 -2.558399901
Cu -2.863673937 -3.135223312 -1.537081561
Cu 0.04286583471 -1.666819134 4.136504983
Cu 1.923679093 -1.192329828 2.504004623
Cu 2.920732469 -0.04639965067 -1.691519814
Cu 1.538008617 -2.431244036 -1.765188388
Cu 1.404912732 -0.817597328 0.1103394768
