23
Energy = -96.67375339 eV, Pt19Cu4
Pt -2.914180556 0.7946010692 -0.7358309244
Pt -0.7198760998 0.8984279479 0.9098528547
Pt 3.061698741 -1.356217111 1.340582451
Pt -0.8370408538 -1.024077118 -0.7842397903
Pt 2.456637635 1.683533886 -2.067163723
Pt 3.562341827 -0.8762368866 -1.433497072
Pt 1.439186156 0.07760893524 -0.2056789385
Pt -1.854560466 -0.4030713856 -3.162965019
Pt -1.249499431 -3.442821152 0.2447826259
Pt -0.3643568299 1.575304463 -1.777756807
Pt 1.012308791 -0.7306044077 -2.803086729
Pt 1.186116039 2.779128145 0.3063648707
Pt 1.563665538 0.8823670737 2.432750077
Pt 3.667044012 1.302598351 0.491460022
Pt 0.2630408486 -1.57666121 1.755792089
Pt 1.391722251 -2.636728926 -0.6662037045
Pt -0.7917348412 -2.983595375 -2.540196591
Pt -2.536632229 -1.102160574 1.390555599
Pt -3.225461062 -2.033348296 -1.26044638
Cu -1.623013219 3.172587581 0.1326628039
Cu -1.046564475 0.2765682475 3.379276343
Cu -2.916049733 1.64284416 1.963820775
Cu -0.5016400035 2.811407752 2.577506943
