23
Energy = -97.2860866 eV, Pt20Cu3
Pt 2.315721533 1.126223337 1.657469041
Pt -1.579193057 -0.647452218 3.582322538
Pt 1.589273394 -1.215219194 -2.320094267
Pt 1.235269234 -1.036954009 3.268416936
Pt -0.9773117072 -2.3194058 -3.071797113
Pt -2.256391529 1.787482007 2.247087434
Pt -0.5895994691 0.5456016871 -2.966379289
Pt 0.07691006962 3.140753411 -1.863800273
Pt -1.810630186 1.474279575 -0.5380755066
Pt 0.9229503651 0.90904368 -0.7045941439
Pt -0.678171223 -1.101989029 -0.7514711303
Pt 0.2442696371 1.617919316 3.616797115
Pt 0.1388860225 2.893611584 1.022340505
Pt -2.808993884 -0.7629961711 0.9612626645
Pt -0.2749809067 0.1975497932 1.456142181
Pt -0.6190984417 -2.531803326 1.602538433
Pt 1.813555371 -1.450118702 0.521499906
Pt -2.350484731 -3.133431524 -0.640774443
Pt -3.02091623 -0.6766871243 -1.938960622
Pt 0.4716992412 -3.498047042 -0.912404977
Cu 2.084371102 1.508001929 -2.893846215
Cu 2.514411281 2.894081426 -0.5392208492
Cu 3.433232424 0.3598230004 -0.8397575861
