38
Energy = -120.334279 eV, Pt4Cu34
Pt -0.351893164 2.024426139 0.7623959793
Pt -2.104783931 0.1434204994 0.5942333891
Pt -1.026929862 -1.874910634 -0.6415293985
Pt 1.400153878 -1.256343081 -1.246316255
Cu 0.3824216748 -0.4480221258 0.9934282895
Cu -0.2384491476 -2.827353483 1.602567323
Cu 3.690912091 -0.5836664837 -0.3373464637
Cu 1.781535559 1.125146387 -0.3556460776
Cu -1.315991944 -0.8095998205 2.837981125
Cu 0.4034942125 4.375943156 0.4454818804
Cu -2.264719039 2.211455647 -0.9799091157
Cu -3.925166305 1.817200088 0.8958794711
Cu 2.203063259 -2.199548799 1.002963789
Cu 0.2866408528 2.876358572 -1.585477064
Cu -3.289844895 -2.721683494 -1.251097918
Cu 0.8210188259 -3.68374958 -0.6146217629
Cu -2.716151046 -0.3362836984 -1.891718007
Cu -0.2337910361 3.530175125 2.773912324
Cu -2.749903637 -2.273729559 1.243222053
Cu 3.284082955 -1.018092578 -2.857123774
Cu 4.042728947 1.803283137 0.5090301679
Cu 2.63080431 0.2164235879 1.869291777
Cu 1.153542447 -1.378418295 3.18558186
Cu -3.780346414 -0.2236279122 2.442822212
Cu 1.436244523 -2.974163638 -3.037527856
Cu 0.454354088 1.074978633 3.007862985
Cu -1.634725917 -4.241391147 -0.01714968202
Cu 2.544930966 3.435401112 -0.6901490233
Cu -2.044954842 1.682906988 2.671228141
Cu -1.026119903 -3.611352212 -2.427886743
Cu 1.942641602 2.690028435 1.667046473
Cu 3.637245686 1.389964937 -1.942510539
Cu 1.442512581 0.7119260399 -2.910692011
Cu -2.139040539 3.720669347 1.061529813
Cu -4.37511614 -0.6894627214 -0.006845673414
Cu 3.23885216 -2.972472383 -1.20746789
Cu -0.4214325724 -1.240113515 -3.093210739
Cu -0.4631531859 0.5485576761 -1.371777711
