38
Energy = -141.8020084 eV, Pt16Cu22
Pt -1.752780278 -0.3223801107 0.7860118396
Pt 1.195036782 -1.543417424 -2.662482891
Pt 2.780897317 -1.57825292 0.8614441473
Pt -2.256811234 -2.200555532 -1.106227182
Pt 0.7438729619 -0.004746435803 1.761152864
Pt 0.6010145375 2.243958954 -2.356984615
Pt -0.8266525102 0.02018939313 -1.722001849
Pt -0.6856717552 -2.226061521 2.393757718
Pt -0.3405296298 1.888589447 0.1676556204
Pt -1.280335612 1.552545058 2.689580866
Pt 4.096102713 0.6428368962 0.2247856744
Pt 0.2576434597 -1.873559929 -0.1289221217
Pt 3.618350218 -1.193386685 -1.632321167
Pt 1.664383887 0.3397426868 -0.7477432785
Pt -2.85206193 1.579381788 -0.8115605114
Pt 2.176186729 2.227597267 1.151434032
Cu -1.259714904 -1.782711762 -3.457569992
Cu 0.1218296067 0.3556097455 -4.055385128
Cu -4.081688859 -0.6110204994 -0.1909717209
Cu 1.050442785 3.924717734 -0.4456717665
Cu 1.163177738 1.801916412 3.497596631
Cu -3.61308852 1.190076092 1.630623517
Cu 2.188962908 -3.283375214 -1.010395419
Cu 2.975322744 2.451748925 -1.312829272
Cu 1.732996668 -1.835340727 3.219422742
Cu -1.824672592 1.850765362 -3.171759123
Cu -2.271462269 3.287505415 1.043311918
Cu -3.201174282 -0.2858217447 -2.570675667
Cu 1.271252394 -3.610040946 1.424536108
Cu 3.12294192 0.3063209061 2.620130152
Cu -3.043352445 -2.438502042 1.347864724
Cu -1.364600784 3.619043313 -1.383362633
Cu -0.2081191494 -0.3354997846 4.094560107
Cu 0.1401235606 3.597521525 1.983889297
Cu -2.574519246 -0.6364676728 3.170401396
Cu -1.137770786 -3.90864687 0.4807580099
Cu -0.2370282725 -3.579764964 -1.945312718
Cu 2.506990253 0.6516936464 -3.133359432
