38
Energy = -156.6552851 eV, Pt17Cu21
Pt 0.1046610405 -2.937315363 1.698460667
Pt -3.484639083 -0.8571058716 -0.3339416052
Pt 1.314784883 1.002280317 3.912900711
Pt 2.315913168 -1.450067606 2.762178212
Pt -1.683922819 1.008209533 3.503472642
Pt 4.1257876 -0.8107929104 0.6043739331
Pt 2.841075706 0.7952494826 -1.348954698
Pt -3.682609802 1.904700079 -0.7651706004
Pt -1.671984619 -2.026251925 -2.467415881
Pt -2.313832596 -1.464990723 2.178914623
Pt -0.819182937 0.05782173301 -4.135378948
Pt -1.115372539 3.143235693 -0.6376558391
Pt 0.04544941482 2.59840217 1.941467999
Pt 0.5926522137 2.041577488 -2.647975333
Pt 2.926692351 -1.96559693 -1.923165307
Pt 0.494574561 -3.276388844 -1.126555772
Pt 1.847407046 3.191150837 -0.1792601098
Cu 4.318429313 2.023413888 0.641769772
Cu 2.70644345 3.063125829 2.539070971
Cu -3.525596744 -0.06747357711 -2.958586913
Cu 0.7620136934 -2.358054268 -3.780887244
Cu 2.214581571 0.9426587707 1.364868491
Cu -2.188045651 2.36270611 -3.153909566
Cu 2.724390854 -3.286258431 0.618095052
Cu 4.015829243 0.7279999079 3.012879533
Cu 0.6155421735 -0.6556373511 -2.030460524
Cu -1.831963254 0.9229773579 0.8502208744
Cu 0.4134251524 1.059806148 -0.2296312631
Cu -2.220352901 -3.311701454 -0.07176947434
Cu -4.156154991 -2.689727503 -2.057315718
Cu -1.554279236 0.5927655501 -1.645511139
Cu -2.69915002 3.047294686 1.692736071
Cu -4.044917611 0.7423591054 1.876806391
Cu 1.596513476 -1.189595547 0.194848945
Cu 2.053700181 -0.01823716086 -3.901294263
Cu -0.214487352 -1.390698986 4.077132805
Cu 0.07271462228 -0.2067581276 1.988345054
Cu -0.893806214 -1.258713755 -0.06974151196
