38
Energy = -148.2638903 eV, Pt19Cu19
Pt -0.4061888296 -1.796627745 -0.4884854967
Pt -0.9721019801 -3.980904547 0.8655687893
Pt 0.06354928112 0.89932133 4.10093627
Pt -0.1720068076 -0.4478154324 1.830399219
Pt 0.4110174243 1.808023859 0.4711740248
Pt 2.12334154 0.9348995577 2.405441917
Pt -2.172715479 -0.4446462165 3.56594847
Pt 1.863615868 -0.4349612219 0.06116235512
Pt -0.7463441863 -2.669901424 3.170277693
Pt 1.493532082 -1.31148527 3.699900447
Pt 1.302601564 -2.727861271 1.442553557
Pt -1.859187631 0.4452397712 -0.07485881482
Pt -1.276939862 2.708702904 -1.457702924
Pt -2.099210625 -0.9143054379 -2.415501872
Pt -2.479943279 -1.83353208 1.304353445
Pt 2.452373346 1.826956251 -1.321450638
Pt 1.631339944 -1.796336457 -2.279202953
Pt 0.1757719871 0.4543568211 -1.850124787
Pt -1.640115063 1.824717129 2.267934846
Cu 2.124093735 0.4412193326 -3.482629396
Cu -3.380814502 1.280494417 -1.931423322
Cu -1.006602609 3.886593364 0.8278447703
Cu 3.40500308 -1.269856817 1.910735273
Cu 0.7293262599 2.604188064 -3.088806327
Cu -2.573983779 -3.03922598 -0.9987388236
Cu -3.159184781 2.59357955 0.3104670001
Cu 1.006375043 -3.885751202 -0.8679294898
Cu -3.950523112 -0.8935575264 -0.6144948991
Cu 3.957115598 0.9110259091 0.5704711043
Cu -3.734939485 0.4182830259 1.649861328
Cu -1.454641175 1.287356941 -3.613374628
Cu 0.9525347609 3.888449387 -0.887185283
Cu -0.6132372865 -3.015407218 -2.708615195
Cu 2.580181609 3.03854649 0.9588874445
Cu 3.166995083 -2.576391726 -0.3544441461
Cu -0.05996462611 -0.8756610122 -4.004980779
Cu 0.6198457746 3.03491517 2.69522024
Cu 3.722388939 -0.3989655268 -1.671901279
