38
Energy = -169.7181392 eV, Pt35Cu3
Pt 0.3316390281 1.140193698 3.511719873
Pt 2.551564655 2.503200903 -2.906668613
Pt -2.212828849 -1.042085935 0.5806827296
Pt 0.4113191225 -1.195974771 -0.6339209149
Pt -1.865507341 2.901193602 -1.458325793
Pt -0.9214708595 -3.450072344 0.793256659
Pt 1.737765712 -1.380752219 4.02661022
Pt -0.4998839777 1.286056905 0.648341676
Pt -0.9761637935 -1.071507273 4.791090162
Pt -4.40368032 -1.002316261 -1.083880845
Pt -1.817923184 1.469109554 -4.016517603
Pt 0.8974588313 1.157918187 -4.777636503
Pt -2.369889402 0.4963026011 2.837805565
Pt 1.88137011 -0.07765364291 1.610916366
Pt 4.085321149 -1.397131032 2.433451733
Pt 4.316756314 1.088412505 1.086275755
Pt -3.271628996 -0.9434073163 -3.682263666
Pt 2.113544907 1.13103503 -0.56192564
Pt 2.287666718 -0.4038040589 -2.819141788
Pt -0.2953879725 -1.173322318 2.183386674
Pt 1.782460289 -2.810644014 1.466579716
Pt -4.167166521 1.486062816 -2.427100604
Pt -1.966586581 0.1661322844 -1.596937393
Pt -2.01691913 -2.572077726 -1.684694075
Pt -4.647389092 -0.8448248816 1.72684287
Pt -0.08166304664 -3.500144786 3.533578694
Pt 3.382950446 -1.281665818 -0.3415615739
Pt -2.63186947 -2.422412624 2.924033245
Pt 1.93374724 2.662017116 1.697392978
Pt 0.004396710561 3.58775849 -3.523147053
Pt -3.469315164 1.377486353 0.350854477
Pt 0.2090980409 1.262662032 -2.171840354
Pt 0.8378228641 3.540393602 -0.7816396369
Pt 3.193101336 1.032032509 3.689849715
Pt -0.4120819202 -1.051733768 -3.497571271
Cu 4.470023616 0.94305431 -1.670277685
Cu -3.701118463 -3.186339084 0.4788653131
Cu 3.617078153 3.263209504 -0.4711268841
