23
Energy = -111.889611 eV, Pt20Cu3
Pt -2.023568116 -1.240336962 0.2979339316
Pt 0.744395214 -0.7877490691 -2.755804686
Pt 0.5088888244 -1.066019754 1.179391285
Pt 2.168073718 1.148247383 -1.658151756
Pt 1.01367849 -2.551589935 3.242860256
Pt -2.816244959 0.8975651825 -1.201751176
Pt -1.152802835 0.9643908937 -3.281692509
Pt -2.452250997 1.033281144 1.362854903
Pt 0.005276593336 1.525934437 1.884428863
Pt -1.356807378 2.888611578 -0.08182203989
Pt 0.2175916923 2.827785559 -2.232890741
Pt -0.02349932051 -2.562138041 -0.9411930177
Pt -1.823807603 -1.284958715 -2.292080158
Pt -0.2404352284 0.5915890906 -0.7268001502
Pt 1.655838396 -3.438999358 0.864247082
Pt 2.344474717 -1.332371492 -0.6919469179
Pt 1.268477801 2.935424728 0.08321892997
Pt 2.428618335 0.7863498972 0.9710401254
Pt 1.4972874 -0.02896624067 3.379289241
Pt 3.053866393 -1.571284921 1.942284924
Cu -0.8787316937 -3.229402772 1.551566437
Cu -1.176230207 -0.6874197366 2.982514526
Cu -2.348135862 3.111004973 -2.461891764
