38
Energy = -128.2075517 eV, Pt10Cu28
Pt 1.557774771 0.9135744332 -0.5792374413
Pt 1.072421447 -1.437229435 0.6173176577
Pt 0.1415940415 0.8345986108 1.697115616
Pt -1.072419011 1.437227501 -0.617316844
Pt 0.6346771748 3.22468548 0.50672991
Pt -1.557775074 -0.9135751525 0.5792394983
Pt -2.80597344 -0.3147784504 -1.756593297
Pt -0.3479987219 -1.534907614 2.929359521
Pt 2.519296403 -1.375003842 -1.679493968
Pt -0.1415917878 -0.8345986415 -1.69711579
Cu -3.103088077 -2.570208543 -0.5325651274
Cu -3.558706514 1.869216172 -0.6002860569
Cu 1.895888995 -3.565468706 -0.4601830553
Cu -0.5401039209 3.623887059 -1.759109276
Cu 1.229043564 -0.6939629333 -3.811374405
Cu 3.561654252 -1.851856047 0.6355865863
Cu -0.7856873307 2.979289264 2.650516341
Cu 0.3378732465 1.49023801 -2.844112945
Cu 0.537161092 -3.641243224 1.723813481
Cu -1.938312094 -3.148397995 1.687969388
Cu -2.850745471 -0.9214892757 2.74642012
Cu -1.770213175 -2.49587749 -2.675012126
Cu -1.928282394 3.546473449 0.4722304573
Cu 1.935367377 3.13103488 -1.723273008
Cu 4.018456137 0.3606573829 -0.4905856446
Cu -0.6162117361 -3.130845361 -0.4919882096
Cu 2.828444379 0.9513733474 -2.759261275
Cu 1.32685209 0.2105496942 3.835865385
Cu 2.202926519 -1.92763357 2.819588309
Cu 2.724318791 0.3056208121 1.705477489
Cu -2.170527786 1.946634095 -2.831631208
Cu -4.015508559 -0.343299019 0.525882931
Cu 1.792513262 2.465987957 2.68784754
Cu 0.7532856241 -2.998292896 -2.638466958
Cu -1.251349783 0.7238498789 3.798537026
Cu -2.445980816 1.334990711 1.63062174
Cu -1.294453377 -0.1915480954 -3.847910275
Cu 3.125386512 2.540320497 0.5454006198
