38
Energy = -154.2142583 eV, Pt14Cu24
Pt -1.008731957 2.106935485 -3.381445543
Pt -0.1221392268 1.949485614 1.270592084
Pt -2.109949831 2.111956834 -0.8947460337
Pt 2.422416895 2.509113565 -0.1822862312
Pt 2.825352377 0.2106162429 -1.922944593
Pt 0.6877614204 -0.07703305765 -3.689261254
Pt -1.380003034 -2.194198137 2.639684385
Pt -1.771321282 -2.51284112 -0.327854423
Pt 3.029024413 -2.119076919 -0.4423289898
Pt -0.7305861828 -2.563502666 -3.115144661
Pt 0.136048653 3.766919803 -1.042828571
Pt 0.6925964579 -0.3407736665 2.972711755
Pt -1.134446087 -0.1991232826 0.6660810233
Pt 0.780893901 -3.876574723 -1.044471214
Cu 2.339673401 -4.058123764 1.293694822
Cu -1.679584237 4.143268129 0.8408213586
Cu 0.5939504677 -1.296696084 -1.278939652
Cu -3.534088883 0.9377406817 -2.967877197
Cu 2.522916191 1.572426147 2.323320429
Cu 0.3670309533 1.202896473 -1.273080718
Cu 1.099910873 -3.061908977 3.357001147
Cu 2.9736187 -1.44730282 2.183199796
Cu -1.499623719 -0.2466938076 -2.015404733
Cu -1.659564789 0.6026609241 3.279591167
Cu 0.6826483621 -2.173748707 1.015776067
Cu -3.577743104 -0.1657118217 -0.5561953971
Cu 1.70957021 2.488985589 -2.951091974
Cu -0.3535042154 -4.392199021 1.404590038
Cu -1.530056243 3.28648547 3.165493149
Cu -3.43948434 -0.8924946352 1.822445084
Cu -3.334509874 -1.786014808 -2.651045887
Cu 2.08156568 -2.340499221 -3.010623731
Cu -2.967726872 1.748153238 1.469215034
Cu 0.5790498835 2.186315134 3.889588544
Cu -1.884582835 -0.405665987 -4.499587428
Cu 4.122645552 0.3345856243 0.5063793389
Cu 0.9516544865 4.008290308 1.813873444
Cu 1.653250059 0.05805686101 0.5327433086
