38
Energy = -151.2734566 eV, Pt10Cu28
Pt -1.730302734 2.767846594 0.2561411538
Pt 2.037551243 -2.618344613 0.9965389247
Pt -3.84412364 -1.028511755 -1.565883253
Pt -0.08250314032 -3.557563945 -0.7457162793
Pt 1.948802697 0.3336293015 0.8297062644
Pt 0.2077851947 1.288617142 -0.8247520415
Pt 0.8220861495 -1.19792797 3.08827708
Pt -2.510684872 -2.647897791 0.2832523981
Pt 0.3282553467 0.3606200897 -3.317978998
Pt 0.2446068264 -2.529883039 -3.367694319
Cu -4.315746922 -0.7967330721 1.214401288
Cu 2.726052999 -1.354243136 -3.308969855
Cu 4.53397913 0.8988700388 0.2547380191
Cu 2.70699594 2.746423989 -0.3500091151
Cu 1.616828185 2.768778021 -2.766420076
Cu -0.4612032365 -3.410188328 2.009016925
Cu 0.475213973 4.098275236 -0.7940944451
Cu -2.103258949 -0.9806275328 -3.852936238
Cu -1.066714351 0.5644730466 4.238943183
Cu -4.174470052 1.462794594 -0.1901715061
Cu -2.284065975 1.082547819 -2.10888193
Cu -0.9027891545 3.000402743 -2.615316222
Cu -0.4796479049 0.8645591351 1.812609462
Cu 2.432467363 -3.430625377 -1.708343495
Cu -2.988288831 1.294148127 2.331187592
Cu -1.982166782 -1.217596668 2.553296367
Cu -2.300843506 -3.228139677 -2.414236764
Cu 3.744222316 -1.371870803 -0.566368037
Cu -2.183800187 0.0944243142 0.2297175686
Cu 0.9230509022 2.901096517 1.40489333
Cu -0.1843954949 -1.288856883 0.6782717621
Cu 1.298219969 -1.221544332 -1.270091334
Cu 2.795601114 0.7227047267 -1.825025682
Cu 1.404736503 1.332351639 3.449527657
Cu -1.011760127 2.930073278 3.08774001
Cu 3.531540468 -0.5869484401 2.374267064
Cu 3.425880692 2.17549131 2.157195935
Cu -1.139509703 -1.148412869 -1.600681278
