38
Energy = -131.7783587 eV, Pt8Cu30
Pt -2.551949076 -1.443581373 1.330231245
Pt -1.50060451 -0.6342836104 -0.9426593016
Pt 1.500604003 0.6342868541 0.9426574325
Pt 1.131906677 -0.7718716672 -1.29063986
Pt 0.05407543516 -1.596140578 0.9960582202
Pt 2.551949213 1.443584156 -1.330233213
Pt -1.131907332 0.7718746869 1.290637427
Pt -0.05407608823 1.596143984 -0.996060422
Cu 2.668336968 -1.708438842 0.635168947
Cu -1.01224453 -2.354237927 3.187417909
Cu -0.3223326725 -2.97575415 -1.217883862
Cu 0.7352423361 -2.100115213 -3.39747575
Cu 1.368942926 3.714606034 -1.026837154
Cu -0.406992323 0.1942221902 -3.1998283
Cu -1.368942416 -3.714603238 1.026835757
Cu -4.020631151 -0.4929806137 -0.5640885361
Cu -1.551573354 2.46589162 -2.829471379
Cu 0.406991601 -0.1942182744 3.199826102
Cu 2.873271296 2.783897529 0.8490762239
Cu 1.012244532 2.354241511 -3.187419551
Cu 1.801700772 1.967193466 3.062335504
Cu 2.234420654 -3.027637794 -1.527968533
Cu -2.234421913 3.027640893 1.527965501
Cu 2.159814384 0.06293579692 -3.472454228
Cu 1.551572845 -2.465888142 2.829469382
Cu 1.196036433 -3.821844488 0.6759056787
Cu -0.7352435391 2.100119408 3.397473011
Cu 4.020630738 0.4929823596 0.5640864958
Cu 3.663873631 -0.8676117677 -1.596869038
Cu 0.3223321958 2.975757552 1.217881457
Cu -2.159814767 -0.06293230962 3.472452063
Cu -1.196036657 3.821847679 -0.6759081222
Cu -2.945349037 0.316284271 -2.778275428
Cu -2.873270706 -2.783895207 -0.84907792
Cu -3.663874319 0.8676140211 1.596866661
Cu -1.801701845 -1.967189597 -3.06233784
Cu -2.668337736 1.708441732 -0.63517123
Cu 2.945348039 -0.3162806465 2.778273538
