23
Energy = -86.91025161 eV, Pt12Cu11
Pt 2.273264753 1.733255112 -1.733096894
Pt 2.836056682 -0.2317330037 0.02606218029
Pt 0.9570649212 -0.1293158367 1.981894138
Pt -1.125377245 1.841175849 1.191350169
Pt -1.557056794 -0.8273629782 0.7757070157
Pt 0.6737982104 -2.092963074 -0.02481750689
Pt 0.3459690382 0.4681548745 -0.5084407496
Pt -0.9930596061 -1.144838969 -2.087822052
Pt -2.053994763 1.209303477 -1.25959676
Pt 0.005068151383 3.010812601 -0.980927498
Pt 1.695122729 -0.8419452512 -2.34487981
Pt 1.810319778 2.169664316 0.8664470004
Cu -1.287739261 0.158997575 3.10952372
Cu 0.5000882077 2.121911943 3.091036544
Cu -3.455731654 0.8136741256 0.82305142
Cu -1.647003554 -3.022860451 -0.5384008351
Cu -3.309869224 -1.017015762 -1.01579103
Cu 2.936483258 -2.598122843 -0.9583532115
Cu 0.161923577 3.999051419 1.388237986
Cu 2.498748381 -2.160675726 1.683324414
Cu -0.221882593 -2.324196935 2.358884655
Cu 0.008913390953 1.165399694 -2.921028909
Cu 0.5895656757 -3.148678409 -2.286925033
