38
Energy = -10117.24541 eV, Pt38Cu0
Pt -2.645338896 2.158303295 0.2609575543
Pt -3.109886895 -2.333041198 1.484975477
Pt -2.244860516 -0.6463838015 -3.461883741
Pt -4.113211011 -0.01386891781 0.6802866693
Pt 2.685095881 -2.115531527 -0.2641288561
Pt -2.07108164 2.890157233 -2.225694005
Pt 0.9365187274 -4.061875867 0.1864697727
Pt -0.6347323163 1.415311815 -3.897362406
Pt 2.284617458 0.6891556049 3.458712333
Pt 3.720966765 -0.7856897254 1.787043931
Pt -2.828654623 -1.5723185 -1.04307265
Pt -0.8967617796 4.104647736 -0.1896410034
Pt -1.676933716 -3.804399293 -0.1827403058
Pt 0.6744893047 -1.372540099 3.894191092
Pt -1.243908576 -2.960072513 -2.659097519
Pt -0.06901383325 -1.787644709 -0.6339281072
Pt 1.97254069 1.158444052 -3.529025382
Pt 1.71669049 3.847171188 0.1795690106
Pt 2.11083864 -2.847385465 2.222522755
Pt -1.932783708 -1.115672444 3.525853983
Pt 3.149643618 2.375812972 -1.488146899
Pt -1.329786818 3.260320873 2.286716126
Pt -0.3452526022 0.9960343377 3.262685754
Pt -1.538472156 -0.2788030761 1.076273639
Pt 0.5683251417 2.777359176 -1.961827031
Pt 4.152967876 0.05664071423 -0.6834581518
Pt 2.97586484 -1.160728208 -2.724336545
Pt -2.936107856 1.203499878 2.721165159
Pt 1.283665491 3.002844343 2.65592615
Pt 0.3850095834 -0.9532626592 -3.265857227
Pt 2.868411386 1.615090257 1.039901177
Pt -3.681209852 0.828461578 -1.790215331
Pt 0.1087707144 1.830416439 0.6307567317
Pt 1.369543771 -3.217549089 -2.28988742
Pt 1.135222457 -0.5422145909 1.45399428
Pt -1.095465563 0.5849862598 -1.457165597
Pt -0.5285682413 -2.734587456 1.958655711
Pt 1.578229028 0.3215747203 -1.079445042
