13
Energy = -31.88842789 eV, Pt0Cu13
Cu 1.841766983 -0.3620667977 1.480085436
Cu 1.789452086 1.580763445 -0.1135745376
Cu -2.036631269 0.7604047443 0.9938655006
Cu 0.2075855139 1.51360071 1.838415647
Cu -0.2075855114 -1.513600712 -1.838415673
Cu -1.789452089 -1.580763452 0.1135745367
Cu 0.6075299072 -2.274489012 0.4140750048
Cu 0.5228825461 0.8690763476 -2.16452097
Cu -1.841766997 0.362066805 -1.480085431
Cu -0.6075299186 2.274489013 -0.4140750017
Cu 2.036631287 -0.7604047478 -0.9938654822
Cu -0.522882539 -0.8690763429 2.164520972
Cu -2.80540457e-09 -4.727406315e-09 -4.332933626e-09
