38
Energy = -9604.1326 eV, Pt18Cu20
Pt 3.642546655 0.2446623287 2.018581202
Pt -3.553373184 -0.894060246 -1.561691118
Pt -1.729977074 0.802563396 -2.266558264
Pt 2.567521803 -0.3626006375 -2.981778611
Pt 0.706472651 -2.079874729 -2.451278634
Pt -2.429609965 -0.2778123409 3.416813707
Pt 1.833957889 -1.428442205 2.71792388
Pt -1.085159907 3.424722421 1.348252509
Pt 1.741912936 -3.759876168 1.606015853
Pt 0.801020314 2.818353179 -0.3172724249
Pt -0.6810678875 -3.436325559 0.7762128828
Pt -1.728021392 -1.610963572 -3.197530457
Pt -0.5801077307 1.421024924 2.898534013
Pt 1.200238207 -4.070072115 -0.8698682923
Pt -1.634902423 3.126100365 -1.129256482
Pt -3.096372301 -0.5820553609 0.9605746721
Pt 2.612860661 1.976914617 -1.962494825
Pt 3.238269064 -0.06430236938 -0.5009073207
Cu -2.986686941 -2.872543441 -0.09651484445
Cu -0.07279442717 -0.6806402774 4.201543816
Cu -0.09696113512 -2.985072336 3.189818768
Cu -2.907182107 1.752591398 1.944070401
Cu 1.227385923 -1.694158528 0.140377868
Cu -0.5970363153 -0.9772589634 1.762993642
Cu -1.184097317 -3.600826885 -1.706416543
Cu -1.144052167 -1.280039025 -0.7069519022
Cu 0.1756168265 0.02841352306 -3.758625267
Cu 1.266060661 0.6447255635 1.151422969
Cu 1.803791446 0.9397177738 3.588659029
Cu 3.026275528 -2.401724513 -1.476603875
Cu 3.567971121 -2.096752182 0.9930933923
Cu 0.724690004 0.3410914608 -1.316994644
Cu -2.43995799 -2.568495838 2.374858189
Cu 1.288432084 2.94434198 2.156905107
Cu -3.451868756 1.451733748 -0.5172875495
Cu 0.2201825662 2.35974787 -2.74301986
Cu 3.12013172 2.242811307 0.5494215333
Cu -1.103908772 1.057047 0.3166466666
