38
Energy = -146.1367014 eV, Pt18Cu20
Pt 0.5197858828 -3.962732013 -1.289166199
Pt -0.5641997757 -1.582767222 -0.8657660177
Pt -0.7392372987 -0.6243644257 1.646027431
Pt -0.3463403904 3.084744159 -1.205752165
Pt -1.662893197 0.8387831015 -0.4330572892
Pt -3.010818191 -1.401049847 0.3490549271
Pt 0.7469886198 0.6380253308 -1.644959509
Pt 1.670643762 -0.8251237627 0.4341265125
Pt -1.836288414 1.81919101 2.093489462
Pt 0.5735038291 1.600768719 0.869196848
Pt -1.506666151 -0.1234337693 -2.981622577
Pt 1.867077854 -1.807409393 -2.103979609
Pt 0.3629268585 -3.085025525 1.226698138
Pt 1.505607844 0.1511114266 2.962848496
Pt -0.389970634 -2.521622243 -3.336943154
Pt 2.995562488 1.41666036 -0.3363933203
Pt -1.853811888 -3.764997475 -0.09552211216
Pt -2.763563938 -2.323875708 -2.143293914
Cu 3.741573896 -0.02910641701 1.67471598
Cu 3.037584511 0.4227817941 -2.722705233
Cu 3.913287225 -0.9644015089 -0.7515574648
Cu -1.974265668 -2.750950646 2.313213211
Cu 2.702235413 2.271739222 2.087913639
Cu 2.647642085 -3.135981997 -0.0110796049
Cu -0.8602416428 0.3542610387 3.988911587
Cu -3.745745426 0.05522393708 -1.674250478
Cu 1.977795815 2.764867792 -2.295425938
Cu 0.8761565154 -0.3298236012 -3.998550458
Cu -0.1787657525 2.028196632 -3.5594037
Cu 2.479310322 -2.182409135 2.423731011
Cu -2.624023263 3.148227905 0.01877514209
Cu -2.463531644 2.218535773 -2.410417847
Cu 0.194550487 -1.992071357 3.572712535
Cu 0.3845514034 2.464823234 3.253451796
Cu -0.5037702755 3.871990382 1.253907027
Cu -3.897506887 1.000525096 0.7648715836
Cu -3.021807665 -0.3866539102 2.736010943
Cu 1.813914611 3.678909603 0.08837307399
