23
Energy = -84.39075124 eV, Pt2Cu21
Pt -1.585107806 2.014028752 -1.569457875
Pt 1.162936968 1.800185568 -0.9982001228
Cu -2.504139567 0.06650869849 2.338552359
Cu -0.4063022079 3.404557588 0.5775545865
Cu 1.48246661 1.778126752 1.744238046
Cu 0.2133992793 0.8128246676 -3.373704288
Cu -1.09893276 -1.696725665 0.9407698801
Cu 2.059828381 -0.636545165 -1.937074021
Cu -2.832407875 2.291506999 0.9052326286
Cu -1.905892052 -2.435505278 -1.475925659
Cu -2.859760407 -0.1326232606 -0.3613257893
Cu 0.1422172846 -0.287643122 2.862593582
Cu 1.220764255 -2.586858407 1.888446854
Cu 3.393001407 0.6737840531 0.09039096618
Cu 2.806946774 -0.5024021415 2.414785833
Cu 0.7138806325 -2.678476164 -0.7823774803
Cu -2.217428503 -0.2804776654 -3.015921262
Cu 0.003248282546 -1.845333741 -3.2533064
Cu -0.7610675077 0.929771861 0.7425341969
Cu 3.1615801 -1.985563358 0.1536187273
Cu -0.9593090318 2.180308556 2.884036531
Cu -0.4437897047 -0.3971623183 -1.280457491
Cu 1.214105035 -0.4844933195 0.5084048684
