13
Energy = -3207.714142 eV, Pt10Cu3
Pt 0.3439949159 1.235044631 2.144387614
Pt -1.205830415 1.201251168 -1.828943574
Pt 1.358398363 0.7681124016 -1.951108201
Pt -1.358398362 -0.7681124004 1.9511082
Pt -0.4382871064 -2.452178259 0.1918128534
Pt -0.3439949169 -1.235044632 -2.144387616
Pt 2.316243101 0.7889979095 0.5045455164
Pt 1.205830416 -1.201251169 1.828943575
Pt 0.4382871051 2.452178257 -0.1918128528
Pt -2.3162431 -0.7889979086 -0.504545516
Cu -1.803211561 1.465806581 0.6908883577
Cu 1.803211563 -1.465806582 -0.6908883594
Cu -1.53684751e-09 2.844084054e-10 -1.267595023e-09
