38
Energy = -161.6282874 eV, Pt23Cu15
Pt -0.5062722087 2.483706884 3.831645057
Pt -0.9536243337 3.490662946 -0.6802562721
Pt -2.327591629 2.398116816 1.571464333
Pt -0.845859858 0.222971749 2.313717549
Pt 1.281429405 -0.5420859027 0.5214349019
Pt 0.9443609755 -3.503036817 0.6806375732
Pt 3.390972469 0.2550263192 -1.433212363
Pt -1.711951898 -4.257058264 -0.2184751025
Pt -3.078892832 -1.80228362 -0.9523086931
Pt 3.072319128 1.788786221 0.9537758694
Pt 1.695666794 0.6973695837 3.204405664
Pt 0.3722282518 2.093990668 1.261295017
Pt 0.6379336968 -1.950499219 3.057067483
Pt 0.8450511854 -0.2182227945 -2.31187193
Pt -0.6322866078 1.955769383 -3.066157705
Pt 2.214334638 1.773834103 -3.610758381
Pt 2.324773 -2.390629699 -1.557375676
Pt -1.221164926 -1.875288306 1.052998228
Pt -1.284015247 0.5424032729 -0.5198181946
Pt 1.219096998 1.873022253 -1.055371674
Pt -0.3771233038 -2.095515473 -1.255924036
Pt -1.701166793 -0.6887466411 -3.191413032
Pt -3.388004469 -0.2486123744 1.423034178
Cu -3.487919623 -3.037078024 1.54663219
Cu 1.674092175 4.169627967 0.2155567454
Cu -2.786311449 0.8854916668 3.903474158
Cu 0.4763467227 -4.450904527 -1.930725853
Cu 0.4159810498 0.04993726506 -4.856595895
Cu -0.4411643002 -0.1058675849 4.855309529
Cu 2.761125851 -0.9414183438 -3.904753814
Cu 1.895481585 3.483301976 2.836449657
Cu 0.4932785075 -2.43219036 -3.751066816
Cu -1.868795487 -3.459541412 -2.882565766
Cu -0.4496647219 4.474661895 1.884615939
Cu 1.13350475 4.061573637 -2.446256299
Cu -1.142776892 -4.028443457 2.498472371
Cu -2.171259942 -1.736955826 3.537927145
Cu 3.478649795 3.070216832 -1.494415132
