23
Energy = -73.86879126 eV, Pt6Cu17
Pt -2.51584168 0.4304494012 0.4021015932
Pt -0.7666220089 2.311205169 0.4937784932
Pt 0.2035121572 -0.2482729271 1.235084417
Pt -1.6864438 -1.945679005 -0.2127764082
Pt -0.2705752941 0.2276844521 -1.243684013
Pt 0.822607584 -2.241735491 -0.6844012731
Cu -0.09373643919 -2.711190985 1.709696226
Cu 2.855720143 0.6474632522 1.351138767
Cu 2.248207496 -1.753633311 1.37300275
Cu -0.03442080247 2.768700409 -1.943948093
Cu -2.238694869 1.933915938 -1.646933113
Cu 1.826972002 -0.2155000027 3.298283668
Cu -0.8945787302 -1.916790631 -2.643394594
Cu -0.3387072176 -1.058744746 3.635656785
Cu 1.302948921 -1.062679337 -2.935405877
Cu -2.670321071 -0.4003969082 -2.053539804
Cu 1.574143724 1.929084196 -0.2378312336
Cu 1.670857578 1.27247924 -2.662418311
Cu 0.966036267 1.919606884 2.323547263
Cu -0.7251126987 0.678915876 -3.600646766
Cu -1.407003808 1.051156108 2.683291584
Cu -2.179921139 -1.324673366 2.179741089
Cu 2.348006031 -0.2879044674 -0.8115316172
