13
Energy = -50.70268584 eV, Pt11Cu2
Pt 0.6305163155 2.324044736 1.214019897
Pt 1.64009982 -0.144180802 2.174142619
Pt 1.966728625 -1.892423883 -0.05279969422
Pt 1.15161661 -0.481750457 -2.39497838
Pt 2.548867243 0.8851240589 -0.3202430119
Pt 0.3276305934 2.127244115 -1.597165399
Pt -1.617760349 0.133012213 -2.121249174
Pt -2.503481599 -0.8886348555 0.3697281151
Pt 0.03272061048 -0.02203289785 0.009039846548
Pt -0.3052911924 -2.138412465 1.650058865
Pt -0.6133663953 -2.356500332 -1.172141259
Cu -1.076201313 0.4494804888 2.331149303
Cu -1.851188086 1.790711579 0.1042663963
