23
Energy = -89.12201321 eV, Pt8Cu15
Pt 0.8101737573 2.414084818 1.600290364
Pt -1.596987599 1.108841453 2.294606354
Pt 0.1473173858 -2.88674487 0.8307339661
Pt -2.161071236 -0.1799619962 -2.08386694
Pt -2.001305224 -1.085175086 0.5772515745
Pt 0.2460900069 1.125281706 -2.778182701
Pt 2.001305595 1.08517504 -0.5772518016
Pt 2.554478928 -1.58150144 0.1364183633
Cu 0.7620137314 0.5491281966 3.674173115
Cu 2.833862754 0.5117728304 1.979877383
Cu 1.791831118 -1.809817816 2.809920797
Cu 1.206076296 -3.148137008 -1.736769962
Cu 0.4486734738 3.308611196 -1.031692689
Cu -3.240357938 1.308294084 0.03236274909
Cu -0.7254667776 1.199782021 -0.2596931568
Cu -0.8551690265 -1.488543526 3.043932799
Cu -0.1567690284 -1.550085225 -3.457515554
Cu 0.2112698444 -0.9459515405 -1.045830382
Cu -1.635061511 3.359903013 0.6475945699
Cu -1.968089483 2.599008786 -1.937403446
Cu 0.5141974741 -0.2538304921 1.30552325
Cu -1.438019912 -2.820225753 -1.480213064
Cu 2.25101178 -0.819908957 -2.544267769
