13
Energy = -33.33696041 eV, Pt0Cu13
Cu 0.008403793515 1.649344585 1.783011302
Cu 0.5635097189 0.8005131853 -2.22287492
Cu -0.5635097102 -0.8005131961 2.22287492
Cu -1.822912567 0.1384279732 -1.599176309
Cu -0.769949995 2.229642132 -0.5791462755
Cu -0.008403797621 -1.649344565 -1.783011284
Cu 0.769949993 -2.229642124 0.5791462616
Cu -1.695325478 -1.734310993 0.1325680073
Cu 2.165986885 -0.6630346205 -0.8765975227
Cu -2.165986915 0.6630346302 0.8765975188
Cu 1.822912589 -0.1384279797 1.599176304
Cu 1.695325481 1.734310989 -0.1325680109
Cu -2.586671906e-09 -1.760897997e-09 1.906310857e-08
