13
Energy = -44.79633848 eV, Pt4Cu9
Pt 1.018477479 1.534788684 1.664617147
Pt -0.03543226417 -0.06944772835 -0.0120972345
Pt -0.5038692919 2.430475959 -0.1752383208
Pt 1.807143378 1.524288625 -0.7608223861
Cu -1.039303412 -1.522743563 -1.72492893
Cu -2.313607013 0.6213417607 -0.7558689614
Cu -0.2186370605 0.9550814685 -2.320567161
Cu 2.329412965 -0.5440930013 0.7589204873
Cu 0.5417681813 -2.452985703 0.1859068874
Cu -1.858396072 -1.511838878 0.7940851256
Cu 0.2398375191 -0.8809983033 2.330141911
Cu 1.56267587 -0.8986104165 -1.738078175
Cu -1.538679809 0.9726555517 1.739052354
