38
Energy = -146.4264205 eV, Pt4Cu34
Pt 3.05018665 -0.1356608115 -1.7649968
Pt -0.319485473 1.056073965 1.295622002
Pt 0.3405573657 -0.4659508543 -0.8474232228
Pt 1.082497638 1.026098496 -3.196130097
Cu -1.352672381 0.005606735512 -3.069167897
Cu 0.779596055 -1.542738863 1.572495643
Cu 4.092375989 1.806478123 0.01675088603
Cu 3.212126587 -1.74247242 2.364106356
Cu -0.6987107968 1.91594579 -1.382317769
Cu 0.8555988509 3.717535629 -2.337414463
Cu 1.522596104 0.225046402 3.279696198
Cu -3.895866074 -0.5383425675 -2.374535916
Cu -4.599812122 1.003530337 -0.2563131524
Cu -0.7797081579 -3.43377334 2.366534401
Cu 1.128875073 -2.378811669 3.910258402
Cu 2.320722235 0.1332111981 0.8137711982
Cu 2.041109467 2.467501942 1.826688673
Cu -3.137575443 2.006518278 -2.254146951
Cu -1.813090986 -2.121104357 -1.671446791
Cu 0.07841711806 -3.237891791 -0.2957151058
Cu 3.289825059 2.508907563 -2.487500345
Cu 4.658027901 -0.7720753599 0.3802398157
Cu 1.754339992 -3.874340168 1.734956214
Cu -1.699502132 4.192707976 -1.68285638
Cu -3.177320976 -2.269498398 2.52527474
Cu -3.94288559 -1.566166069 0.06590148608
Cu -1.008071372 -0.8396349105 3.288439575
Cu -2.240073194 0.2401345391 -0.6237656824
Cu -2.499360354 2.599692164 0.354454202
Cu -2.487458733 -3.762896079 0.3644610908
Cu 2.468786765 -2.250658969 -0.2897484824
Cu -1.491631471 -1.485586382 0.8439568356
Cu 0.8567811591 -1.868097859 -2.695396949
Cu 4.050698753 0.7976750512 2.499360281
Cu 1.629946579 1.950540505 -0.6585757947
Cu 0.002843099466 3.670935926 0.3442198362
Cu -3.010733521 0.3427799616 1.831866818
Cu -1.084573717 2.618470763 -3.796453937
