23
Energy = -67.23703724 eV, Pt3Cu20
Pt -0.9451236692 1.268452882 -0.3181290936
Pt -1.41423187 -0.4661753961 -2.314539277
Pt 0.2222255072 -1.076050429 -0.273772214
Cu -0.3817251118 1.085985159 2.158361976
Cu 1.037281144 2.582679781 0.7060863951
Cu 0.1134738446 -1.389383983 2.294529874
Cu 1.120925205 -0.8665660276 -2.625442502
Cu 1.675983032 -3.047341314 -1.137020232
Cu 1.562332118 1.060088199 -1.065034494
Cu -1.168112522 3.349205688 1.226999452
Cu 1.997540206 -2.32756772 1.157530147
Cu -1.896631538 -0.6601088644 1.218210738
Cu -0.4712241064 -2.813825764 -2.120008314
Cu -2.792413096 1.544909164 1.526721959
Cu 2.810254086 -0.956824172 -0.6983338838
Cu -2.904544947 2.969620101 -0.4244078148
Cu -0.5183737708 3.510232012 -1.254631242
Cu -0.2736097008 -3.354721827 0.5302958909
Cu -3.254005139 0.3056795351 -0.6703134457
Cu -2.219930519 -2.148741711 -0.5961482095
Cu 0.03251010713 1.558820361 -2.803814059
Cu 1.760643706 0.2291853879 1.279725447
Cu -2.332272013 1.894810909 -2.461215265
