38
Energy = -9478.908275 eV, Pt14Cu24
Pt 0.9659668265 -3.042170247 0.516784272
Pt -0.08017610042 3.62021643 1.772424817
Pt 3.049372841 -0.3742483623 -1.079042346
Pt 2.045373239 -1.058004607 -3.338424624
Pt -3.043479227 0.3574435092 1.039038209
Pt -0.1304579135 -0.6289972443 3.153120381
Pt 1.944588739 2.05732282 1.577393576
Pt -0.994307836 3.053073382 -0.5562829888
Pt -3.821753354 -0.3420679276 -1.295306277
Pt 3.809967673 0.3219556076 1.27083269
Pt -1.946908463 -2.056050616 -1.59764879
Pt 0.581653384 3.061050812 -2.579023072
Pt -0.5965617128 -3.069300388 2.542392678
Pt 0.1104933887 0.6214645524 -3.212759927
Cu -1.456568343 -3.70326958 0.2594628152
Cu -1.001506877 -1.287226196 0.7427566348
Cu -3.370109872 -2.082778591 0.4858888874
Cu -2.025779004 1.010878457 3.235794763
Cu 1.780930962 -2.228623908 2.761653005
Cu -2.49299427 -1.422150948 2.751532494
Cu 0.05181398548 -3.561794045 -1.759744896
Cu 2.489253451 1.40324038 -2.806855721
Cu -2.280139541 -0.2111639793 -3.283101608
Cu 2.418025256 -2.778594607 -1.534480552
Cu 3.355700354 2.067179659 -0.5155847892
Cu 2.256838898 0.1927346436 3.253380476
Cu -1.801585996 2.219407609 -2.799788763
Cu -0.3413150535 -1.844076603 -3.537150653
Cu -2.436113286 2.766462823 1.499758016
Cu 1.393222607 -0.4796171104 0.9994539325
Cu 0.9916790937 1.286860972 -0.7844912936
Cu 0.3230937406 1.832238822 3.502749454
Cu 1.439137489 3.714489938 -0.2818683813
Cu -1.40412123 0.4769933802 -1.039566702
Cu 3.295179439 -2.092598296 0.7567065125
Cu -0.5303354571 1.156357173 1.243052056
Cu -3.318032856 2.073183956 -0.7875038475
Cu 0.5207792585 -1.15709075 -1.284336713
