38
Energy = -137.5677858 eV, Pt14Cu24
Pt 3.005901546 -0.4866558849 1.285951969
Pt 1.409299891 1.25898013 -0.04502868338
Pt -3.034639414 0.4676107868 -1.323190912
Pt -1.230770939 1.366373641 0.4950976583
Pt -1.438037379 -1.278019881 0.007790613172
Pt -0.3751370303 0.3571496744 -1.854926199
Pt -0.1688704063 3.021040305 -1.376353711
Pt 0.3464022959 -0.3761909286 1.817686246
Pt 2.279694499 0.2514416666 -2.410437583
Pt 0.5573462127 2.282957232 2.320035465
Pt -0.5860868816 -2.301990081 -2.357284933
Pt 1.202033096 -1.385415396 -0.5323383934
Pt -2.30842612 -0.2704726556 2.373200817
Pt 0.1401243717 -3.040082803 1.339113967
Cu -2.082722825 -0.5340050315 -3.511421083
Cu -0.4997662071 0.6188612705 3.996642223
Cu 2.364393082 2.775600909 -1.845481922
Cu -3.722106078 1.399648596 0.9912035723
Cu -1.882232494 2.02391909 -3.040047487
Cu -0.7002600462 -1.939079604 3.525274863
Cu 0.671523099 1.920047251 -3.562509277
Cu -2.693966506 2.981355022 -0.8106116209
Cu 0.4710325994 -0.6378815339 -4.033887549
Cu 1.967267472 -2.291027246 -2.779169934
Cu 3.062342416 2.066233412 1.707043286
Cu 1.53673641 3.751826356 0.4276967942
Cu 3.693369719 -1.418686599 -1.028442533
Cu -3.918737402 -1.109048111 0.5289044723
Cu -1.996010763 2.272004476 2.741922107
Cu -3.091079045 -2.085270207 -1.744288092
Cu 2.66521616 -3.000403276 0.773370574
Cu 2.053985937 0.5149750859 3.474174466
Cu -2.393133341 -2.794633239 1.80825194
Cu 0.9391143144 -3.872744368 -0.9773567546
Cu -0.9678684076 3.853705937 0.940107878
Cu -1.565483966 -3.770857416 -0.4649414642
Cu 1.853490415 -2.042967649 3.002806797
Cu 3.890000772 1.09001149 -0.5661357818
