13
Energy = -57.83379107 eV, Pt12Cu1
Pt -1.989770673 -0.3491182251 -1.526095692
Pt 1.412147707 -2.040082869 0.5039242081
Pt -1.412147709 2.040082872 -0.5039242018
Pt -0.2963366441 1.6653674 1.883819225
Pt -1.230950226 -2.200441171 0.2299110228
Pt 2.286851631 -0.089653043 -1.082733041
Pt 0.2963366465 -1.665367409 -1.883819227
Pt -0.1843504419 -0.9554205804 2.337354332
Pt 1.230950228 2.200441173 -0.2299110148
Pt 0.1843504443 0.9554205861 -2.337354341
Pt -2.286851623 0.08965304137 1.082733045
Pt 1.989770665 0.349118223 1.526095693
Cu -5.127480829e-09 3.625682528e-09 -4.594237931e-10
