38
Energy = -176.2775358 eV, Pt32Cu6
Pt 0.8230256699 -1.659323387 -0.4353856974
Pt -0.9058114941 -2.9980455 1.23505137
Pt -3.296877337 2.520217906 0.7664620579
Pt -1.720736108 -0.7752282142 -0.1700150548
Pt -2.542821686 0.3862662483 2.176106492
Pt -4.218460104 0.1000710102 0.1073882128
Pt 1.628958201 -3.782792914 0.9348539874
Pt -2.613698608 -3.195848323 -0.8179601549
Pt 3.431001125 1.064805174 2.262687579
Pt -0.8003056752 1.676870639 0.502606256
Pt 0.7870503969 -0.6289027404 -4.07474126
Pt -0.822459074 2.671684277 -3.148998346
Pt -2.604984097 1.42979767 -1.575364972
Pt -0.005445972674 0.5222898824 -1.81476131
Pt 0.9300658232 3.032198058 -1.152560978
Pt 2.60454962 -1.40149631 1.649906542
Pt -1.609032521 3.801955953 -0.8538864157
Pt -3.435051704 -1.045863783 -2.18453859
Pt 2.618553504 3.203679053 0.9112190766
Pt -0.9440072297 -1.978555503 -2.53189627
Pt 2.598228316 -0.3680295747 -2.113896392
Pt 4.240753469 -0.07939307586 -0.008740135955
Pt 1.740764278 0.7920813792 0.236039852
Pt 0.0265792499 -0.5063504141 1.882798558
Pt 3.331160083 -2.512027064 -0.6771674477
Pt 1.607408585 -2.78977967 -2.708423986
Pt 1.695748825 1.801333602 -3.406936128
Pt -0.09255393075 -4.070624077 -1.082005921
Pt -1.732182721 0.2409705491 -3.815341694
Pt -3.388736192 -2.04129778 1.459257767
Pt 3.424579784 2.075975725 -1.371800079
Pt 0.943159441 1.972034069 2.576733162
Cu -1.542399316 2.727852816 2.708739972
Cu -0.7437707823 0.6443851543 4.018734783
Cu 0.1137084998 3.982513296 1.138068237
Cu -1.637542591 -1.727473768 3.383396751
Cu 1.709306857 -0.1990975607 3.776121968
Cu 0.8264612322 -2.5854923 3.127931895
