23
Energy = -108.3272986 eV, Pt22Cu1
Pt 1.730936412 2.669470544 -0.8795807039
Pt -1.388817547 -0.248673583 -2.353246683
Pt -3.314347101 -1.625700619 -1.188296392
Pt -1.448781572 -0.4021496221 0.2872045646
Pt 1.061301259 0.1759504478 -0.2881990869
Pt -2.215737132 1.692916449 1.565845093
Pt 2.956318722 0.6456712767 -2.204964412
Pt -3.344470936 1.028288089 -0.92914011
Pt -0.916381066 2.008645477 -0.8449567116
Pt 1.083884292 -1.234181092 -2.526044149
Pt -2.54861282 -2.715670384 1.056946679
Pt -0.7077302065 -2.541906907 -1.004289655
Pt 1.863651629 -2.3441311 -0.2396560693
Pt 2.281126051 -1.041250608 2.063468146
Pt 0.5866720074 1.370695725 -2.90492002
Pt -3.975505223 -0.4366569795 1.132182729
Pt 2.524790204 1.539471069 1.448118923
Pt -0.02940019332 -2.183711534 1.632762024
Pt 0.2362312784 2.883654347 1.307662795
Pt 3.712333876 -0.4304697536 0.01178307385
Pt 0.1536591446 0.4855128388 2.292559633
Pt -2.054289256 -0.8082013709 2.853869514
Cu 4.157572939 2.034949412 -0.4417046327
