23
Energy = -5970.856954 eV, Pt22Cu1
Pt -3.201568622 -0.4599732206 -1.824081502
Pt -3.582848955 -2.75383865 -0.7733794881
Pt -1.88018241 -0.5338478908 2.567576844
Pt 0.5111940611 -1.283080565 1.876671965
Pt 3.060338323 0.6541650371 -1.621702402
Pt 0.621673751 1.682138497 -2.057129683
Pt 1.974977252 2.759648343 1.855280562
Pt 3.812410143 1.259110904 0.7256397752
Pt -0.1796661982 2.856941914 0.2297059813
Pt -1.931320091 1.834623251 -1.459875277
Pt 0.7193414574 -2.876548053 -0.1058256479
Pt -0.08538670829 1.30861994 2.431009344
Pt -0.9982415165 -0.06794517594 -3.030634588
Pt -1.034410919 -0.2718435134 -0.1653387852
Pt -2.337038038 1.620294653 1.115461146
Pt -3.599079997 -0.6699666438 0.6991632614
Pt -1.678319194 -2.587214023 0.9231261757
Pt 2.370215711 2.968440828 -0.653536441
Pt 1.086135059 -0.9793566294 -1.772825311
Pt 2.395052108 0.3027145616 2.601270114
Pt -1.256093909 -2.364165229 -1.756992326
Pt 2.75127401 -1.209247408 0.35304323
Cu 1.259751536 0.7725663639 0.2830025422
