38
Energy = -163.5468811 eV, Pt26Cu12
Pt -2.642125384 -3.30295451 -0.5880237375
Pt 3.72893243 1.805366091 0.01140576766
Pt -0.6253472377 -1.563555678 0.5791538508
Pt 1.772843226 -0.08935269491 0.3193995768
Pt 1.047288609 2.655489644 3.645505095
Pt 0.725307046 -0.8178799504 -1.807351097
Pt -1.765582818 -1.122907629 -1.912702828
Pt 4.16552199 -1.020619774 0.8877811997
Pt -0.9430841035 0.8475986852 -0.2118504924
Pt -0.6825015016 1.122068889 -3.149023825
Pt 2.06756608 -2.695665512 -0.2871153885
Pt 1.795623386 -1.882178616 2.350694844
Pt 2.961109152 0.8914388097 2.584937766
Pt -3.13401748 1.219491568 -2.01272028
Pt 1.134459325 2.313830773 0.889897053
Pt -0.6899861268 -1.817717554 3.500268309
Pt 3.437462573 -0.4649202294 -1.778681868
Pt 0.2196556144 0.3810679377 2.325277699
Pt -0.8138486942 3.294647759 -0.8267151675
Pt -0.2113158161 -3.8735583 1.249563436
Pt -3.441096078 -0.6744163409 0.08567585494
Pt 1.535530679 1.784958547 -1.755634615
Pt -2.398581923 0.116418384 2.299359765
Pt -1.282086839 2.675259046 2.093329258
Pt -0.2757667154 -1.666181371 -4.158489356
Pt -0.173058708 -3.392564942 -1.737318265
Cu -2.752146484 -0.4831312012 -4.221148051
Cu 1.353387237 -0.1260489623 4.563202343
Cu 2.061016902 4.162714633 -0.5584825805
Cu -3.221466737 2.098088842 0.455233046
Cu 0.4901272259 4.654485413 1.550070617
Cu 1.835017304 0.08720253744 -3.972076138
Cu -2.697254349 -2.621572822 1.963422667
Cu -2.465948662 -3.128901566 -3.389671882
Cu -4.279619805 -1.508511996 -2.29991845
Cu 3.020314649 3.676690832 1.961084615
Cu -1.053458873 0.987125552 4.465908494
Cu 2.145682886 -2.529864691 -3.113442777
