13
Energy = -3066.191281 eV, Pt6Cu7
Pt 2.191474961 -0.5310796496 -1.020330274
Pt 0.02761821167 -1.521608183 -1.951826769
Pt -0.02761820724 1.521608185 1.951826769
Pt -2.191474955 0.5310796527 1.020330276
Pt 0.5086950513 0.9741933095 -2.217624566
Pt -0.5086950465 -0.9741933051 2.217624567
Cu -1.624049959 -1.771987578 0.05478496098
Cu 1.833811712 -0.1891144223 1.543324324
Cu -1.833811708 0.1891144254 -1.543324322
Cu -0.8552850531 2.216324658 -0.3699622373
Cu 0.8552850577 -2.216324655 0.369962239
Cu 1.624049963 1.771987582 -0.05478495908
Cu 1.667457386e-09 1.979942467e-09 2.210627421e-09
