23
Energy = -101.9037203 eV, Pt19Cu4
Pt 2.434910082 0.03260617941 2.587734632
Pt 1.844460468 -1.911952442 0.7648016027
Pt -1.751911173 -0.9080450009 3.049842894
Pt 1.073415825 2.306209359 1.871648624
Pt 0.1673535445 -0.1747621251 -1.291359278
Pt -0.8410608311 -2.422525339 0.8761853454
Pt -0.271375104 2.015551443 -2.732062309
Pt 0.2430133077 0.6649347258 3.891315914
Pt 0.08901081613 -0.02375782066 1.334889181
Pt -1.911960227 -1.765012984 -1.515539575
Pt 0.5301758018 -2.783026867 -1.392588472
Pt 2.736272061 -1.320577697 -1.607647755
Pt -2.44349294 -0.2451796282 0.595900449
Pt -1.652308165 1.696710785 2.365757758
Pt -0.759932324 2.085868826 -0.0999969655
Pt 0.6696039615 -1.892479545 3.138329803
Pt -2.432341416 0.8640817808 -1.766218181
Pt 2.345597644 0.7205944232 0.04164900638
Pt 2.12842762 0.9991550551 -2.638565201
Cu -3.249060569 2.144085577 0.3566824472
Cu -1.126459165 -0.3124822908 -3.551572503
Cu 1.07104923 -1.260397904 -3.469618742
Cu 1.466100772 2.853274721 -0.9739139453
