38
Energy = -145.5959 eV, Pt3Cu35
Pt 0.1747414274 1.967042597 -0.3262279633
Pt -0.8547866341 -2.002266623 0.8027099212
Pt -0.660349869 -0.3818643677 -1.30169614
Cu 0.6274259211 1.913299081 2.521653977
Cu 2.721687354 1.77449558 1.026642723
Cu 2.083171403 0.2710404921 -1.045277251
Cu -1.371275865 -2.081746803 -3.408745385
Cu 1.249688233 -1.242051503 -2.958081642
Cu -3.596351318 1.361519444 1.995151857
Cu -0.8490168147 0.2084495411 -4.071995434
Cu -3.220785293 -0.6147823064 0.2356398385
Cu 1.592768129 -2.343565881 2.257067641
Cu 3.506385965 -0.8539682338 0.8890941575
Cu 0.5993901605 3.981921908 -2.098421944
Cu 4.539951104 0.9118507547 -0.782647094
Cu -1.423406708 2.209783318 -2.545202161
Cu -2.956176558 -0.08475109233 -2.417754518
Cu 3.377490623 0.6872904769 -3.156829616
Cu 0.9654623057 1.484479219 -2.915308257
Cu -0.1935623929 -3.283526823 -1.534515002
Cu 3.771806136 -1.476161332 -1.753349014
Cu -2.598754657 1.762460635 -0.4327073634
Cu -1.665655641 1.353089653 3.74828049
Cu 1.635734524 -2.145246426 -0.4191677714
Cu -2.632570908 -2.538136907 -1.211303828
Cu 1.046361923 3.993403576 0.6628479175
Cu 2.453770325 0.07009449969 3.133611128
Cu -0.9926912004 -3.360551475 2.815643099
Cu -1.702809866 -4.538476234 0.3132172665
Cu -1.280084598 0.5490658592 1.341433563
Cu -0.09840525944 -0.733480918 3.304616016
Cu 2.692000064 2.747494732 -1.348304053
Cu 0.719385043 -4.26191889 0.8407540627
Cu -1.48183233 3.078779472 1.66489534
Cu -1.429570396 4.142233448 -0.6365883859
Cu -2.59725155 -1.037511643 2.839032516
Cu -3.342900831 -2.984087416 1.384066668
Cu 1.013729713 -0.1753782361 1.05700227
