38
Energy = -132.8905641 eV, Pt12Cu26
Pt -0.691593353 0.9457897512 3.110891044
Pt -0.3776549942 1.781535288 0.5475501744
Pt 0.07248520511 -2.649707882 2.006054314
Pt 2.259218289 2.21856057 1.012117278
Pt 1.461448417 0.6312879168 -1.040164561
Pt 0.6915933675 -0.9457897287 -3.110891079
Pt -1.461448393 -0.6312878483 1.040164595
Pt -1.154603403 0.2132126951 -1.495904322
Pt -2.259218288 -2.218560555 -1.012117305
Pt 0.3776550482 -1.781535313 -0.5475501785
Pt -0.07248519334 2.649707906 -2.006054334
Pt 1.154603383 -0.2132126124 1.495904276
Cu -2.938140442 1.338153065 0.09010747963
Cu -2.15564151 2.787273001 2.033164274
Cu 0.386048548 3.213251127 2.498839568
Cu 3.62629866 0.1813423001 1.83480252
Cu 0.8066149677 -1.023801094 3.875490601
Cu -1.861996653 3.595451737 -0.3938499411
Cu -3.626298639 -0.1813422649 -1.834802535
Cu 3.913463825 0.9716805866 -0.5386074157
Cu -2.444557395 -2.932157844 1.464520681
Cu -1.692147411 -1.413366099 3.443434751
Cu 2.155641519 -2.787272964 -2.033164282
Cu -0.3860485313 -3.213251094 -2.498839581
Cu 2.938140455 -1.338153035 -0.09010749771
Cu 2.589112562 -2.127717494 2.306241002
Cu 1.856182803 1.312812909 3.398432434
Cu 2.444557408 2.93215787 -1.464520693
Cu 3.169923372 -0.5292030215 -2.494180506
Cu -1.856182788 -1.312812876 -3.398432449
Cu -0.6831967261 -4.031082105 -0.04286074661
Cu 1.861996658 -3.595451691 0.3938499208
Cu 0.683196746 4.031082145 0.04286073165
Cu -3.169923349 0.5292030517 2.494180486
Cu -3.913463817 -0.971680553 0.5386074005
Cu -0.8066149549 1.023801126 -3.875490607
Cu 1.692147426 1.413366137 -3.443434774
Cu -2.589112537 2.127717515 -2.306241011
