38
Energy = -9414.329139 eV, Pt12Cu26
Pt -1.298074876 -2.801776739 0.8907756968
Pt -2.823608827 -0.3786425158 -1.511139094
Pt -3.882549409 0.8245528983 0.4841008704
Pt -0.4007418277 0.01348664742 3.170054709
Pt 0.4610796462 -0.02118626161 -3.245807183
Pt 1.996890277 -2.443202375 -0.8493195032
Pt -0.09633472619 -3.896636408 -1.085867947
Pt 2.472786055 1.516172081 -2.872198343
Pt -1.923468395 2.445428868 0.77527089
Pt 1.63985805 1.550437991 3.324164234
Pt 2.894223363 0.372060837 1.429959383
Pt 1.361220214 2.802884845 -0.959397156
Cu -0.07344817841 -2.471095141 3.055126676
Cu -1.543110972 -0.1720308618 0.7940193309
Cu -1.542899718 -1.528572001 -3.337040201
Cu -3.533199925 -1.672437961 0.5352635069
Cu 2.743738243 -0.9893503771 -2.779633443
Cu 3.878614706 -0.8099540722 -0.5525347379
Cu 1.918004875 -0.967078762 3.332076168
Cu 0.7677756321 -1.166773446 1.112904089
Cu 0.7355984525 -2.526545931 -3.032754139
Cu 1.060695356 -3.656773661 1.154459316
Cu -2.377650798 -2.865345296 -1.388624378
Cu -2.99156145 2.13843322 -1.489519665
Cu -2.682701738 0.9958873814 2.695579138
Cu -1.84122071 0.9650430971 -3.38807779
Cu -0.6628751371 2.514535932 2.967007148
Cu -2.36462522 -1.489373871 2.74456584
Cu 0.1626701132 3.822426581 0.9952077684
Cu 2.450374307 2.853334943 1.322877435
Cu 0.1466209792 2.479945885 -3.146816812
Cu 3.039290541 -2.132351709 1.411266691
Cu -0.700895739 1.164036766 -1.187804651
Cu 3.594236506 1.678974496 -0.6193178913
Cu 0.4645207405 1.348567587 1.05700044
Cu -0.990861991 3.632930412 -1.228116625
Cu 1.60892295 0.1709890091 -0.8705928749
Cu -0.3965728518 -1.352999125 -1.130228096
