23
Energy = -5834.37582 eV, Pt17Cu6
Pt -0.4263716438 0.9051752781 2.47289132
Pt 0.1357886092 2.283658025 0.2330429739
Pt -2.918246212 0.286316231 2.403949192
Pt -3.062395991 -0.477156128 -1.725890349
Pt -1.090485234 -1.622208714 1.957584833
Pt -3.906476583 1.051198894 0.1155871694
Pt 2.624079473 1.739048836 -0.5906060555
Pt 1.00787174 -0.2538160962 -0.05280874438
Pt -3.442672807 -1.479164806 0.6486165611
Pt 3.47688988 -0.2195971549 1.047946194
Pt -1.323554671 -2.197083834 -0.6346360824
Pt 2.100214954 -0.1092840136 -2.435458364
Pt 2.958618377 -1.96632126 -0.7217311426
Pt 4.384652999 0.04555927569 -1.3185861
Pt -0.5771268092 -0.1917812011 -2.255469102
Pt 1.383207569 -0.94432869 2.430134237
Pt -1.920081442 1.951070115 -1.435141233
Cu 0.6240012306 1.979393694 -2.175169458
Cu 1.918196339 1.540525525 1.869191733
Cu 0.8158077494 -2.268593567 -1.925270801
Cu -2.148549493 2.432856907 1.225046242
Cu -1.472871301 0.1955337236 0.2417742004
Cu 0.8595032691 -2.68100104 0.6250027766
