23
Energy = -100.9604006 eV, Pt15Cu8
Pt -0.455901102 2.906319406 -0.00888263838
Pt -0.5337535785 -2.420093361 0.9430703732
Pt -1.629578354 -3.126486271 -1.282014472
Pt 0.1191161593 1.013568732 3.495609568
Pt 2.619287083 1.033985846 0.09614146377
Pt 1.37620252 2.599783401 1.822375585
Pt 2.444031636 0.3416806119 2.562055519
Pt 0.04220606491 0.4747530899 0.9249890144
Pt 1.889374987 -1.429779523 0.6245089642
Pt -2.347044796 -1.107083827 -2.64420791
Pt 0.8702934657 1.480077003 -1.69954381
Pt -2.439662131 -0.9412420609 -0.04459489131
Pt -0.07877917915 -0.9777207974 -1.274209582
Pt 0.6653291632 -1.43429947 2.974704848
Pt -1.693872316 1.132854101 -1.478825818
Cu 2.360661523 -0.7058967923 -1.869390305
Cu -0.3042685503 0.1682156973 -3.582474967
Cu -1.753903583 -0.5937356226 2.493382483
Cu 2.013273221 3.483384425 -0.5233354357
Cu 1.005337202 -3.264410867 -1.055902704
Cu -0.2010947727 -2.457597993 -3.331229713
Cu -2.403365361 1.440710179 1.008608829
Cu -1.078924498 2.999157553 2.4755409
