38
Energy = -9510.688687 eV, Pt15Cu23
Pt -2.43864463 -0.04529307921 -2.119514454
Pt 1.666910986 -1.151122289 -3.492325031
Pt 0.09590099535 2.702832444 -1.815336744
Pt -0.09120529619 -2.697538815 1.816010923
Pt -2.634134483 -2.681223488 1.479826057
Pt 2.834110576 0.1311599648 -1.598533868
Pt -0.2776236707 2.6205619 1.914521211
Pt 2.463887231 0.04752389315 2.130568778
Pt 2.460030991 -2.513111062 1.991885324
Pt 0.2758556116 -2.593358497 -1.906624796
Pt -1.675639384 1.160260631 3.519231153
Pt 0.8677169514 1.244529931 3.775261416
Pt 2.637780724 2.685099439 -1.482098746
Pt -2.830797087 -0.1277256468 1.598605957
Pt -2.457413654 2.508561897 -1.998465401
Cu 0.1826253916 0.05209693828 -1.785944007
Cu -1.30438445 1.231102554 -0.09698900252
Cu -1.573298057 -1.383191468 3.408098732
Cu 1.311141513 -1.222026975 0.1006262486
Cu 1.397710108 -3.726927696 0.05420835755
Cu -3.797324614 1.147619506 -0.3612489252
Cu 1.221332276 1.314845368 0.1566789382
Cu -1.134110507 -3.811085075 -0.1995485974
Cu -0.9497649754 1.304373557 -3.641809237
Cu -1.400869531 3.732937468 -0.06256714256
Cu -3.707976834 -1.396651729 -0.4028176886
Cu 1.138799365 3.819306623 0.1953053216
Cu 2.240362672 2.562079348 2.080576352
Cu 3.80351453 -1.150157546 0.3559844144
Cu -0.8423043935 -1.210070217 -3.696905584
Cu 2.767966177 -2.394452392 -1.578439559
Cu 3.714783324 1.402007308 0.3985214259
Cu 0.9567707821 -1.29962511 3.662944709
Cu -0.1750994923 -0.03898391478 1.797361948
Cu -2.76888299 2.394988655 1.575281664
Cu -2.226657503 -2.543960564 -2.060794282
Cu 1.574338402 1.384222529 -3.409336009
Cu -1.212790426 -1.303625547 -0.1468088152
