13
Energy = -45.62417403 eV, Pt3Cu10
Pt -0.9957322708 -2.407495988 -0.642367811
Pt -0.2286649826 -0.5147782431 -2.610658415
Pt -0.03249973257 -0.01129205764 -0.006419042142
Cu 1.678471491 -1.685317574 -0.9493837516
Cu 2.348817721 0.06438283094 0.9943795303
Cu 0.6445730027 -1.954208955 1.547183327
Cu 1.829931789 0.9706321447 -1.49444044
Cu -1.701262598 1.695154147 0.9841706969
Cu 0.9011322695 2.311536868 0.6517203369
Cu -0.6883776678 1.984633396 -1.500788038
Cu 0.1732072991 0.5154013781 2.519571643
Cu -1.873736467 -0.9402075604 1.540835824
Cu -2.421988666 -0.03426067799 -0.9597194302
