38
Energy = -174.0861166 eV, Pt26Cu12
Pt -2.755213314 -3.122009361 -0.4730534564
Pt 0.8529299656 -0.9653456669 1.424197244
Pt -0.1683769003 0.809610454 3.225551656
Pt -1.608420817 0.1300550726 1.009854203
Pt 3.080642513 0.5877759873 1.172174808
Pt -1.033758349 3.485027583 -2.041882802
Pt 2.59270776 -1.850036604 -2.728575626
Pt -0.5709279962 -1.672157154 -0.7523658777
Pt 3.272999044 -1.948845914 1.78086071
Pt 1.357104861 2.511775793 -1.703584808
Pt -1.83858101 2.729982807 0.3160988906
Pt -1.376024669 -2.539716843 1.724808544
Pt 0.6111426004 1.667466197 0.7571726265
Pt 1.63108974 -0.09113928317 -1.037524557
Pt 1.916418982 -2.764514601 -0.3560132817
Pt 0.4665317644 -3.342004925 -2.509194791
Pt -2.316489248 -0.7279560693 3.384850089
Pt 0.1980472543 -0.8431779554 -3.234279182
Pt 0.0512424242 -1.728873896 3.816999209
Pt -1.947107462 -2.359538533 -2.855583053
Pt -3.709963757 -1.419681759 1.254735927
Pt -0.8381385174 0.9480340839 -1.458255674
Pt -3.050960314 -0.6213218008 -1.180885485
Pt 0.3197283128 4.156900871 0.02710478497
Pt 2.229882749 -0.2860456693 3.52952961
Pt 3.986192453 -1.158292701 -0.5984478974
Cu 3.721048229 1.399400683 -1.249319799
Cu -2.54114213 1.826969703 2.708381163
Cu -0.05873082182 1.741405378 -3.77899279
Cu 1.094807887 -3.458209786 2.0762322
Cu 2.322213453 0.7049976297 -3.387638057
Cu -3.939956344 1.132589437 0.5700771249
Cu 2.715807852 3.118714612 0.4622769468
Cu 1.989652823 2.255738712 2.87485353
Cu -0.3296874716 -4.165334677 -0.1012792307
Cu -0.4064526259 3.331898369 2.435521628
Cu -2.198928623 0.1764768951 -3.528006427
Cu -3.180953352 1.954616557 -1.805729314
