38
Energy = -8917.705627 eV, Pt0Cu38
Cu 0.2692838893 1.099973892 2.914301866
Cu -2.405108776 -3.038418952 0.2890908651
Cu 1.599297272 0.3836890245 -3.520673593
Cu -1.827307016 2.514433089 0.3379165687
Cu 3.613266525 -0.9750295882 -1.045817365
Cu -2.975046272 -0.7930180325 -0.543906009
Cu 3.157536713 1.292885963 -1.859709438
Cu 1.318083432 -0.1495302962 -1.154713167
Cu -2.112526007 -2.506489332 -2.086829434
Cu 1.827307025 -2.514433095 -0.3379165596
Cu -2.055026996 1.884226512 2.706781459
Cu 3.319074646 -1.509884607 1.343169273
Cu -0.269283881 -1.099973899 -2.914301857
Cu 0.8784555383 2.207477197 -2.032479411
Cu -0.1940260671 3.333278423 1.98789343
Cu 2.055027005 -1.884226518 -2.70678145
Cu -0.8784555299 -2.207477203 2.032479421
Cu -3.319074636 1.509884601 -1.343169266
Cu -1.468252304 2.951011066 -2.058125457
Cu 2.405108785 3.038418945 -0.2890908547
Cu -0.5591090249 -1.611189655 -0.4295704703
Cu -3.613266516 0.9750295827 1.045817372
Cu -0.09855667941 -3.865208035 0.3880268934
Cu -0.7199396613 1.215025111 -3.620153654
Cu 1.021331957 -0.6890387718 1.25505877
Cu -3.157536705 -1.292885968 1.859709447
Cu 0.09855668901 3.86520803 -0.3880268826
Cu -1.021331948 0.6890387663 -1.255058761
Cu 0.7199396689 -1.215025117 3.620153665
Cu -1.599297264 -0.3836890301 3.520673602
Cu 0.5591090338 1.611189648 0.4295704798
Cu 2.112526017 2.506489324 2.086829444
Cu 1.468252314 -2.951011071 2.058125467
Cu 2.570762047 0.2261013192 2.905197527
Cu 2.975046281 0.7930180257 0.5439060178
Cu 0.1940260764 -3.33327843 -1.987893419
Cu -2.570762038 -0.2261013275 -2.905197517
Cu -1.318083423 0.1495302904 1.154713177
