38
Energy = -155.0394841 eV, Pt15Cu23
Pt -1.532857198 -2.035671388 -2.431260829
Pt 3.015907997 0.9035701568 -1.63884563
Pt -0.6492565955 -1.187848434 0.4364549487
Pt -1.372429943 0.6137170679 -1.738653381
Pt -0.6546820807 -0.08177901145 -4.321498189
Pt -1.759870252 1.11344549 0.8852498441
Pt 2.881774791 1.781369868 0.9280668091
Pt -3.524944976 2.046851344 -1.267311363
Pt 0.7832373505 -0.6313805594 -2.030072124
Pt 0.2940531401 3.273113326 1.288131842
Pt 1.93525367 -1.013879354 0.3757293348
Pt 0.7194442265 1.995033198 -3.003798785
Pt 0.709528679 -3.154968144 -1.280180371
Pt -3.334670357 -0.8238917947 -0.72189354
Pt -1.039584553 3.250509041 -1.080552921
Cu 0.8451792009 -3.462299025 1.219176123
Cu 3.06691441 -1.75633668 -2.144164568
Cu 3.209185013 -3.33838792 -0.1684036209
Cu 1.830399357 2.387468416 3.407883337
Cu -4.473065496 1.051138492 0.9454729496
Cu -0.9706032248 2.302556899 3.313786374
Cu -1.325119752 -2.889406019 2.551968583
Cu 3.083046452 -0.03476091319 2.745480356
Cu -2.69285005 3.293513697 1.281036313
Cu -3.292404881 0.03073924632 -3.340215051
Cu 2.189876697 -0.06328084202 -4.133994051
Cu -3.302545247 1.269189368 3.124397428
Cu 0.9529048912 -1.634794884 2.921745862
Cu 3.285294232 -2.527107963 2.186110221
Cu -1.901397994 -3.266467533 0.02844113345
Cu 0.6589404948 0.6910276048 2.042816074
Cu 4.324562182 -0.7518230659 0.2887943591
Cu 0.9080379502 -2.384781637 -3.898122286
Cu 0.6559188821 1.269302745 -0.3590111168
Cu -1.276745467 -0.3515135351 3.231053078
Cu -3.134946281 -1.175877845 1.776730504
Cu 1.8211694 3.433544298 -1.001463006
Cu -1.959913246 2.340714034 -3.587727831
