23
Energy = -114.0471591 eV, Pt21Cu2
Pt 0.871320278 -0.03561109319 3.54853965
Pt 2.659497742 1.575389723 0.677185774
Pt 1.361974437 -2.455960071 0.7959514781
Pt 2.841905875 -0.6859378978 2.081337144
Pt -3.358624466 -1.591166139 -1.405081788
Pt 2.982242936 -0.7774453527 -0.4594193882
Pt 0.9623645347 -1.788659299 -1.750275097
Pt 1.385788882 0.8857439563 -1.676301713
Pt -1.574368186 1.862650622 0.5276779405
Pt 0.5484949139 2.27204977 2.248941326
Pt -1.353941274 -2.25274463 -2.897654025
Pt -2.61617428 -0.6076732578 0.9141069046
Pt -1.11111941 -2.573912895 -0.190013313
Pt -2.606548654 0.03292315005 -3.353995204
Pt 0.5258504169 0.05296746858 0.8442067188
Pt -3.43485153 1.004063158 -1.098659557
Pt 0.6314437532 2.883017759 -0.268357291
Pt -1.468116101 0.6912499367 2.854090254
Pt -0.6822635073 -1.781319692 2.317980511
Pt -1.084813635 -0.1643817703 -1.222705434
Pt -0.03430451148 -0.1181779077 -3.630527825
Cu -1.0773466 2.124784791 -2.227352295
Cu 2.841004554 1.621881195 3.258251767
