38
Energy = -10046.63433 eV, Pt34Cu4
Pt 1.487468928 0.952417601 -2.850971567
Pt 3.695690716 1.552743202 1.166922595
Pt 0.3019564483 -3.451766216 -2.258348611
Pt -0.2936774705 3.321207096 -0.3619937917
Pt 1.993749402 3.544573937 0.9443563932
Pt 3.088674202 -0.5163860311 2.701747926
Pt -3.695690722 -1.552743177 -1.166922634
Pt 2.531890982 -2.826140706 1.642953673
Pt 2.541287888 -3.111145865 -0.9795242944
Pt 0.2832966508 -2.885821041 2.949200676
Pt 1.420028304 1.199362592 -0.1252558396
Pt -3.10733413 1.082331209 2.505801383
Pt -0.8677063105 1.422557403 3.784211564
Pt -3.088674209 0.5163860561 -2.701747965
Pt -1.993749409 -3.544573913 -0.9443564318
Pt 1.467971675 1.543761338 2.590282296
Pt 0.839786761 -0.5757706397 4.007503705
Pt 0.2936774642 -3.321207071 0.3619937531
Pt 0.867706304 -1.422557378 -3.784211603
Pt 2.003115777 3.260495341 -1.669594869
Pt -0.283296657 2.885821066 -2.949200715
Pt 3.107334124 -1.082331184 -2.505801421
Pt 3.249117999 -0.8250280892 0.1013044151
Pt -2.003115783 -3.260495316 1.669594831
Pt -3.249118005 0.8250281143 -0.1013044537
Pt -3.705057133 -1.268664622 1.44702864
Pt -1.467971681 -1.543761313 -2.590282335
Pt -1.42002831 -1.199362567 0.125255801
Pt -2.541287894 3.11114589 0.9795242557
Pt -0.8397867675 0.5757706648 -4.007503744
Pt -2.531890988 2.82614073 -1.642953712
Pt -1.487468934 -0.9524175759 2.850971528
Pt -0.3019564548 3.451766241 2.258348572
Pt 3.705057127 1.268664647 -1.447028679
Cu -0.8519442516 1.133021105 1.190508746
Cu 0.8426184634 -0.8501741786 1.41210991
Cu 0.8519442452 -1.13302108 -1.190508784
Cu -0.8426184698 0.8501742036 -1.412109948
