38
Energy = -180.6340394 eV, Pt34Cu4
Pt -0.4166543936 2.988271837 3.043662509
Pt 1.414180926 3.80434972 -1.144744475
Pt -1.492195241 -3.767876675 1.240880542
Pt -2.100600489 0.9905041817 -2.418111164
Pt -0.4343008528 -1.336735636 1.351017614
Pt 0.6323299572 -3.263188583 -0.2966421174
Pt -0.1505639396 -1.550519497 3.986667076
Pt -0.9844233461 3.42133652 -2.270091543
Pt -2.900965638 -1.748495205 0.2065854629
Pt 4.085689417 -0.3537335822 0.9290415828
Pt 1.432691498 -0.5241928485 -2.921336121
Pt -0.7239116321 -1.119399 -1.33657571
Pt 0.6442097425 1.147462117 1.446186807
Pt -0.7230513407 3.310649441 0.3985769836
Pt 3.034208388 1.508915649 2.552174917
Pt -4.152838415 0.3733020259 -0.8244766069
Pt 0.06619115373 1.565221278 -3.869664593
Pt 0.9179323121 0.9110463827 4.079650053
Pt 0.355600096 1.366459095 -1.239369552
Pt 0.8976682907 -3.404960686 2.365349459
Pt -2.822073913 2.607561783 1.912882734
Pt -3.103496124 2.822674364 -0.7405942111
Pt 2.840544754 1.782965021 -0.1089705736
Pt 3.016743648 -2.806301828 0.8358515577
Pt 3.797153876 -0.135575508 -1.723420868
Pt 1.704203384 -0.7325864346 -0.1925021679
Pt 2.72683676 -2.575957132 -1.804311013
Pt 1.699623586 3.586140712 1.516187027
Pt -3.883910846 0.1519472686 1.81867757
Pt -2.547558955 -1.928023516 2.856035667
Pt -1.782903891 0.7623088266 0.3041505821
Pt 2.033320036 -0.9795222513 2.538235261
Pt 2.460803011 1.944395243 -2.760779437
Pt -1.530278681 0.5481618274 3.045784644
Cu -1.731908245 -3.464969826 -1.353912148
Cu -3.038359147 -1.431531224 -2.368062411
Cu -0.9666917327 -0.8462663363 -3.863334868
Cu 0.3397598017 -2.87970738 -2.849183255
