38
Energy = -199.9418539 eV, Pt38Cu0
Pt 3.434612792 2.291042334 -0.7035818888
Pt -1.171727056 3.175188428 -0.805881547
Pt 2.130231102 -1.192384739 -3.436053662
Pt 2.305478324 0.5118792268 3.402731484
Pt -2.719698307 2.977111841 1.359730878
Pt 0.4785140287 3.084156857 -2.902026701
Pt -1.571989343 0.4353195357 -1.175111071
Pt -2.667071383 -1.352952253 2.956544868
Pt 0.2364249029 2.183991839 3.55820118
Pt -0.186638957 -0.4421721587 3.33522698
Pt -0.2334881277 3.909522929 1.582835472
Pt -2.00781432 2.151702086 -3.125128945
Pt 3.904546108 0.5654197223 1.271893841
Pt 1.926835837 2.343830171 1.498510737
Pt 1.452423288 -0.3761372245 1.074159362
Pt 3.165619949 -0.3299747893 -1.131784546
Pt -3.606883802 2.098166938 -0.9943005912
Pt 0.5447822423 -1.275323782 -1.334158111
Pt -4.024108113 -0.5062415251 -1.372847594
Pt -0.5981184326 -3.024959497 2.801083862
Pt -2.425045101 -0.45270703 -3.503689858
Pt 1.052132027 -3.115983006 0.7049360801
Pt -0.6643484318 1.334525077 1.233203699
Pt -2.04639793 -2.284646216 -1.599473948
Pt 1.365644943 3.963038767 -0.5481157579
Pt 2.600120856 -2.91792263 -1.46068177
Pt 1.888219259 -2.092530634 3.024189338
Pt -3.554188908 -2.231853734 0.6026227054
Pt 3.487299786 -2.03899853 0.8933573005
Pt 0.06706371446 0.5013728951 -3.43619841
Pt -0.3559719107 -2.124785135 -3.659163523
Pt 0.9716605227 1.389262318 -0.9468635249
Pt -2.249782638 1.251599622 3.335108059
Pt 2.547485444 1.412158264 -3.057492378
Pt -1.485226211 -3.903844492 0.4471551479
Pt -3.285182655 0.389163119 1.030842845
Pt 0.1139217513 -3.850323076 -1.683795646
Pt -1.091239876 -1.330068443 0.8459118451
