23
Energy = -5392.721307 eV, Pt4Cu19
Pt -0.6874116714 -0.9180871836 0.6259625795
Pt 1.84311758 -0.3944077865 1.35976049
Pt 0.6449722814 0.9260693812 -0.6325552941
Pt -1.760612667 1.65364055 -1.233750132
Cu 2.154985934 1.035272674 -2.49277229
Cu 2.036831502 3.038817897 -0.9332225871
Cu -2.974518228 0.2783584898 0.5088165932
Cu -2.952288809 -2.094696006 0.503435906
Cu 0.04493232279 0.385901443 2.875883097
Cu -2.025805997 -1.034266479 2.61088399
Cu -1.125342074 1.60310099 1.221053667
Cu 0.2116241429 2.700723683 -2.46601055
Cu -0.3806292499 0.4507540123 -2.949976661
Cu 1.098170171 -2.624225482 0.3848991699
Cu 3.171088049 1.181500979 -0.0306534796
Cu 1.341456438 2.105026496 1.434967242
Cu 0.3795990517 -1.442285107 -1.713408677
Cu -1.164773331 -3.220730189 1.626570179
Cu -0.2228710992 3.344792462 -0.1633063546
Cu 0.4786784631 -1.951913493 2.729558364
Cu -1.119837717 -3.045599049 -0.7598370426
Cu 2.556522137 -0.9313532546 -0.9541495813
Cu -2.027543416 -0.8249758533 -1.513662421
