13
Energy = -54.08616408 eV, Pt8Cu5
Pt -2.231706836 1.066820436 -0.4480099033
Pt -0.08474732899 -2.212210329 1.180880397
Pt -0.887997855 0.02862765313 -2.395684743
Pt 0.1401942801 0.02252917274 -0.07080080279
Pt -1.807586531 -0.3380050209 1.740838827
Pt -0.6252786835 1.964266193 1.430888721
Pt 0.6865464209 -0.05717311387 2.441893887
Pt -1.894635141 -1.537601246 -0.6039135625
Cu -0.02042236417 2.279120534 -1.177255732
Cu 1.88882198 1.594462131 0.7601954698
Cu 0.5405175798 -2.055040586 -1.436703627
Cu 1.673437056 0.3352693765 -1.980268844
Cu 2.242808312 -1.140653411 0.5964688758
