23
Energy = -92.80830852 eV, Pt13Cu10
Pt 2.124257526 -2.058008981 0.7785602383
Pt 1.317675061 0.5345260499 0.3691332762
Pt 2.34052813 -0.8126669053 -1.794104108
Pt -2.524977055 -1.614694003 0.5999556994
Pt -2.518095966 0.503820913 2.577822253
Pt -0.101978798 -1.315816676 -0.6459492035
Pt 0.1858852962 1.032940412 -2.146767567
Pt -2.237015383 3.009380309 1.247592062
Pt -2.301003638 -0.3662229034 -1.973381816
Pt -0.1731679568 -1.045529152 2.144514583
Pt 0.09004532949 1.793568479 2.475667384
Pt 0.3073417845 3.03716435 -0.1121883837
Pt -1.225517075 0.7878105592 0.285068101
Cu 2.630738488 2.444317363 1.399887162
Cu 1.12687651 -3.355032089 -1.530628893
Cu -1.617289966 -3.093703103 -1.637988079
Cu -3.755933178 0.899446529 0.09586334427
Cu -0.0211635175 -1.541855066 -3.196484234
Cu 2.336581137 0.05636808139 2.668388753
Cu -0.355628691 -3.450821436 0.743746936
Cu 3.830499918 0.1686244402 0.4022810972
Cu -2.126223156 2.424828299 -1.475851935
Cu 2.667576248 1.961506888 -1.275181949
