38
Energy = -187.0857463 eV, Pt32Cu6
Pt -0.1278852763 3.526948664 -2.342425429
Pt -1.62236972 3.003330221 -0.1743445947
Pt 2.773915165 0.3345868548 1.904385895
Pt -0.5325779099 -1.594970468 -0.9150382248
Pt 0.7449297605 -3.435761148 -2.287886994
Pt 2.056592945 2.347168481 -1.366099662
Pt -0.888712436 0.9517351732 3.100027843
Pt 3.029244871 -2.15667678 -2.012609959
Pt -2.015981743 -2.313087617 1.303861788
Pt -3.171260464 -0.3431301096 2.660882048
Pt -2.453571893 2.247740267 -2.557404335
Pt -2.739443879 -0.3056969419 -1.940992172
Pt 1.440876104 2.173993324 3.278571408
Pt 1.835423207 -0.2898083357 -0.5979785669
Pt -4.07128837 -0.9690963114 0.2682741032
Pt 3.875579724 -1.581828187 0.4356250202
Pt 0.366639594 -0.9986988214 1.597478901
Pt 2.485775741 -2.200447735 2.552096144
Pt 1.279692271 -0.335944056 3.961643276
Pt 0.5960105191 1.626655176 0.8522475927
Pt 1.644714701 -2.956520121 0.1379614796
Pt -2.851527247 -2.826313225 -1.130561945
Pt -0.6289015305 3.473447786 2.259418134
Pt 0.7406660262 4.130784334 0.0732243423
Pt 1.134454793 1.653183492 -3.72962814
Pt 0.9424938252 -0.932202666 -3.13255636
Pt -0.326804683 1.005655365 -1.648934487
Pt -1.773260536 0.3248393396 0.5525336039
Pt -2.960095319 2.199344598 1.990472121
Pt 3.183240587 0.3823701808 -2.755204183
Pt -0.7434992689 -4.091248401 -0.2150558169
Pt -3.872984127 1.580677819 -0.442726032
Cu -1.400918064 -2.189532254 -3.273077554
Cu 0.1593395217 -3.510301333 2.233395987
Cu 4.079760537 0.9705231445 -0.3190161311
Cu -1.200697344 0.3865108372 -4.00011712
Cu -1.060872143 -1.612579618 3.67970397
Cu 2.844658001 2.8758043 1.120698564
