38
Energy = -151.7585818 eV, Pt11Cu27
Pt 3.177737699 -1.370640456 -0.786837863
Pt -1.167425964 0.6828464855 -0.361403096
Pt 1.633437564 0.9246937543 -0.9770825219
Pt 0.09580336366 1.10937908 -3.205737264
Pt 3.257508809 0.7200756438 1.173327985
Pt -0.9223403617 -0.5161960639 2.480653866
Pt -1.411282848 -1.856969611 -0.155696842
Pt 0.9506061124 -0.8634610246 0.8586569267
Pt 1.172210877 -3.352788585 -0.3777055204
Pt 2.63393846 -0.1489695461 -3.293448397
Pt 0.4577269318 1.842910661 1.252525972
Cu -3.274313281 -0.4396231867 1.289272849
Cu -3.593222698 -0.4420630516 -1.240414977
Cu -3.012158748 -2.953709274 -2.114087417
Cu -1.692961018 -0.7753684656 -2.769939766
Cu 0.9908455221 -1.974699355 3.762249718
Cu -2.140504019 1.799465578 2.141300491
Cu 4.200006252 1.172007816 -1.384390215
Cu 2.131013264 -2.851881212 -2.894716433
Cu -0.5268153071 -3.274486617 -2.464823862
Cu -1.623647736 -4.281499931 -0.09611530212
Cu -3.70039617 1.823991815 0.02484720178
Cu -1.643784694 3.397430507 0.217876598
Cu 1.761492564 0.2901285169 3.160955675
Cu 2.75014408 -2.144662374 1.852983587
Cu -2.463255307 -2.826781507 2.17365488
Cu -0.6111873081 3.901229647 2.687018835
Cu 0.7836764621 4.523786238 0.720867403
Cu -3.979335416 -2.737799837 0.1676336859
Cu -0.1371660533 1.753594647 3.913264843
Cu 0.001053109907 -3.18141133 1.852329886
Cu 0.207597856 3.025167958 -1.363484506
Cu 2.073743973 2.993383427 2.659553701
Cu 2.438890671 2.602821446 -2.78631072
Cu 2.698886546 3.067764508 -0.07165207202
Cu -2.297413518 1.950637881 -2.189942396
Cu 0.3809251787 -1.442930174 -4.284113768
Cu 0.5934277928 -1.143756439 -1.760149052
