38
Energy = -9781.327961 eV, Pt24Cu14
Pt 1.137610994 -3.032227971 0.4447231475
Pt -1.631760177 -2.292074106 -3.046499631
Pt -2.030734661 2.188409485 -2.884250012
Pt 2.622102437 0.1431529626 1.861225641
Pt -0.8543485905 1.343117921 2.810146919
Pt -3.221076251 0.3568928299 2.461737836
Pt 3.059916997 2.492750623 0.8657115391
Pt -2.689093308 2.686085696 1.536241408
Pt 2.27541141 1.821472002 -1.508872732
Pt -2.338874541 -1.828604204 1.390056561
Pt -3.138563663 -2.531835988 -0.9903062181
Pt 3.167347137 -0.3673386891 -2.602792116
Pt -3.552184677 1.961110713 -0.7824046401
Pt 0.3527985675 3.143221278 -2.665860352
Pt -2.674974474 -0.1712395842 -1.992413333
Pt -0.4143849606 -3.161241564 2.53094732
Pt -1.183129536 3.017391221 -0.5661790876
Pt 1.311582409 1.030499056 -3.792080627
Pt -1.304866692 -3.89860501 0.1965717363
Pt 1.96954899 -2.209330665 2.77170461
Pt 1.020916549 -0.09460126003 3.899204784
Pt 0.7855654941 -1.369549527 -2.931832046
Pt 1.576655499 2.269129007 2.943018598
Pt 2.615564815 -2.68018049 -1.651711732
Cu 1.625579592 -0.5802380467 -0.5192106535
Cu -1.688574669 0.5711698047 0.3875085258
Cu -4.036405078 -0.3730779213 0.1578313585
Cu -1.350598361 -1.02991352 3.604266829
Cu 3.417602066 -1.93678768 0.6398339091
Cu 0.2024811231 -3.610839704 -1.858287524
Cu 1.221741838 3.793244004 -0.3115619812
Cu -0.7437899697 -1.534382775 -0.7369552813
Cu 3.956630352 0.3667111292 -0.2883092383
Cu 0.6846647324 1.505643769 0.6229495721
Cu -0.2610881199 3.56421358 1.737002376
Cu -0.1922706633 0.7949391686 -1.682668438
Cu -1.060034165 0.06858715154 -3.95392319
Cu 0.13773021 -0.8123953195 1.559881685
