38
Energy = -158.9293711 eV, Pt24Cu14
Pt -2.312620645 -0.5842013693 -2.690098304
Pt 0.2492858032 -2.17682137 -0.2959041162
Pt 2.601422709 -2.743322258 0.854189142
Pt -1.88927235 -3.033100129 -1.662958899
Pt 3.178015275 1.943102219 -1.21739632
Pt 2.33801532 -0.6832142278 2.565477359
Pt -0.02244415323 -0.1229322847 1.429594479
Pt 3.329019766 1.549431199 1.436954724
Pt 2.039537977 0.1016561406 -2.815051513
Pt 0.9648392875 2.096990344 0.2837910051
Pt -1.736062707 -3.424578552 0.9915930798
Pt -0.7114491361 3.89365533 -0.7231954602
Pt -2.145091935 -0.9570368972 0.01034275121
Pt 2.455888827 -2.357144627 -1.803509717
Pt -2.001949639 -1.371755097 2.689765603
Pt -1.741159038 1.717458777 0.4220520054
Pt 1.136909648 1.71067703 2.965750282
Pt -3.820917103 0.8400734767 -0.9965947386
Pt 2.17307665 -0.2876171012 -0.126750445
Pt 0.4008572179 -2.585539826 2.395150679
Pt -0.1837851469 0.2878396 -1.323238
Pt 0.8366941506 2.508503947 -2.413186082
Pt 0.1032244841 -1.799854736 -2.985308613
Pt -1.857443038 2.081745767 -2.324148871
Cu 0.1152954496 -0.4898307546 3.960753263
Cu -3.600220293 0.3878695905 1.623751771
Cu -4.155089945 -1.755549525 -1.285995957
Cu 4.38442027 -0.814007811 0.9654724151
Cu 0.5000805691 -4.119479169 -1.88210181
Cu 1.904099347 4.194749865 -0.7532279221
Cu -1.508930862 1.252526266 2.973550482
Cu -0.4978501285 3.434472984 1.896525969
Cu 2.066070912 3.807725225 1.760038258
Cu 4.24570044 -0.441180126 -1.552767621
Cu 0.6448337363 -4.48635295 0.6366770742
Cu -3.996071163 -2.145402875 1.227020898
Cu -3.282125666 3.384178776 -0.6676295926
Cu -0.3042423697 0.639166496 -3.877076286
