13
Energy = -42.32230086 eV, Pt3Cu10
Pt 1.905169153 -1.410484777 0.6365955711
Pt -0.04945244513 0.008982537961 -0.03459915768
Pt 1.519103848 0.7885357482 1.759239523
Cu -2.27428875 -0.7607102191 0.7079668579
Cu 0.1189316061 1.152187983 -2.215988457
Cu -1.938861669 1.481636349 -0.6176239141
Cu -0.3808265711 -2.469825159 -0.03610741214
Cu 1.094997724 -1.290200951 -1.839220014
Cu -1.039163798 1.280058236 1.878287431
Cu 2.277084278 0.7719746537 -0.7290781332
Cu -1.529212851 -0.8517266098 -1.808854364
Cu -0.1401439644 -1.16011228 2.224210751
Cu 0.4366634649 2.459684521 0.07517160787
