13
Energy = -64.91633912 eV, Pt13Cu0
Pt 0.2027893988 -0.8485977155 -2.413522546
Pt -2.219111321 1.118694192 0.6406254539
Pt 1.137362426 -1.415427307 1.813644107
Pt -2.125115011 -0.9784020657 -1.054963645
Pt 0.0507001654 2.544575281 0.329998236
Pt -0.05070016638 -2.544575281 -0.3299982358
Pt 2.125115011 0.9784020641 1.054963646
Pt 2.219111319 -1.118694194 -0.6406254543
Pt -1.137362427 1.415427308 -1.813644106
Pt -1.547517129 -1.328722012 1.55756902
Pt 1.547517129 1.328722012 -1.557569018
Pt -0.2027894005 0.8485977179 2.413522545
Pt 1.499629166e-10 -1.75877617e-09 -1.515571852e-09
