38
Energy = -9108.325598 eV, Pt4Cu34
Pt 2.856095429 -0.5260136587 -1.379123438
Pt 0.1334564068 -0.8483344625 3.098140013
Pt -2.248920781 -1.74598166 -1.493270538
Pt -0.7406311355 3.120329665 -0.225745966
Cu -2.776167106 0.5112931025 1.340528429
Cu 2.540261319 -0.2257697683 2.978940005
Cu 0.5894235619 3.099168227 -2.329317298
Cu 1.570263968 -0.9227723296 -3.472858316
Cu 0.8375803521 1.500399704 3.52494579
Cu 3.823231938 -0.07388478404 0.869149731
Cu 3.40944122 1.804870429 -0.7043692451
Cu 2.284284387 1.38092672 -2.872815501
Cu 1.427532987 -0.6562613069 0.820843039
Cu -0.422520922 -3.371983028 -1.956831416
Cu -2.287453537 -1.379469819 2.870993222
Cu 3.110892156 -2.372162 0.2705189941
Cu 1.714580348 3.52311192 -0.160871145
Cu -3.823875663 0.07629319902 -0.8661047339
Cu -2.538018866 0.228519999 -2.98064116
Cu -3.113134601 2.369411851 -0.2688177998
Cu -0.2899303932 1.084894416 1.37158925
Cu 1.827921505 -2.524047044 2.380309264
Cu 0.289930369 -1.084894435 -1.371589238
Cu 0.7199044941 -3.033006692 0.2194284173
Cu -1.711411156 -3.524568815 0.1626933712
Cu -1.985323434 2.794355697 1.904743995
Cu -1.827277764 2.521638649 -2.38335424
Cu -0.8353379582 -1.497649501 -3.526647055
Cu 2.185984305 1.697120009 1.451481123
Cu -0.5887798398 -3.101576664 2.326272361
Cu -3.410084856 -1.802461972 0.7074142141
Cu 0.4256901522 3.370526182 1.958653645
Cu -1.427533004 0.6562612916 -0.8208430095
Cu 1.983081017 -2.797105824 -1.903042745
Cu -0.129721641 0.8245936414 -3.011437979
Cu -1.010149745 -1.238804981 0.7663369441
Cu -1.573433183 0.9242291994 3.471036095
Cu 1.010149718 1.23880494 -0.7663369135
