23
Energy = -60.03050946 eV, Pt0Cu23
Cu 0.770539493 -2.349455332 1.250276031
Cu -2.949462732 0.9763195859 0.9199153729
Cu -0.88525884 0.9557961814 -0.2263067924
Cu -1.374661987 -2.981052936 -0.05156241955
Cu -2.703991955 1.693490625 -1.514409511
Cu 0.8846889576 2.508812248 0.4952736867
Cu -1.623674317 3.092627973 0.4060607363
Cu -1.114894528 -2.299813571 -2.49471115
Cu -0.04410973075 -1.157957948 -0.7452032972
Cu 1.213987668 -1.29123436 -2.738846937
Cu 0.9063373714 -3.265130807 -1.154677488
Cu -1.352952882 -0.9179461816 1.401877639
Cu 0.4334451284 -0.6393223035 3.162708075
Cu 2.730865834 -0.9021344074 2.088781812
Cu -2.475566075 -0.7991531434 -0.9018255644
Cu -0.3608114144 2.666134435 -1.767372574
Cu -0.8503054495 0.2617847099 -2.589013557
Cu 2.395801734 -1.288516772 -0.4369144179
Cu 3.022093703 1.05049772 0.4754149743
Cu 1.347810203 0.8450575817 -1.401796617
Cu -0.7405742138 1.447873273 2.182465088
Cu 0.9216595304 0.09283286609 0.9716399293
Cu 1.789950555 1.462319932 2.669218268
