38
Energy = -137.1519151 eV, Pt10Cu28
Pt 0.7951475079 0.04675149663 1.719680347
Pt -0.505383422 -1.804557898 0.2827384927
Pt 1.905032392 -2.299815659 1.238809471
Pt -2.900558757 -1.254905211 -0.6818545394
Pt 1.64441347 -0.5772054399 -0.7446553947
Pt 0.5053840197 1.804559509 -0.2827375699
Pt -1.644415309 0.5772062326 0.7446523819
Pt -0.3387032337 2.391913718 2.148717872
Pt 1.334229323 1.162808937 -2.705673049
Pt -0.7951493089 -0.04674999124 -1.719680196
Cu -1.332182132 -1.161021618 2.701514634
Cu 3.944235918 -1.079291607 0.2327288472
Cu -2.576334913 -2.924607949 1.259067791
Cu -3.670275025 -0.6371294688 1.70269792
Cu -0.1949315121 -3.442412509 2.210847413
Cu -1.756824809 -3.526703824 -1.118926653
Cu -1.902103406 2.296288624 -1.236906985
Cu 2.567431965 2.92408419 -1.278321943
Cu 0.0634234638 -0.6403936955 -4.044976718
Cu 1.054111248 -1.664389609 3.590909561
Cu 1.738411382 3.533166071 1.127265341
Cu -3.134248321 0.4598358564 -2.596346049
Cu 2.896105472 1.252973104 0.6808084812
Cu 3.128587478 -0.4800343499 2.599514578
Cu -1.035704808 1.657923186 -3.599249203
Cu 0.2133394963 3.435950114 -2.21918626
Cu -2.400753381 1.170040606 3.105385498
Cu 2.689269998 -2.865740993 -1.153867861
Cu 2.406415424 -1.14983906 -3.108547349
Cu 3.661375554 0.6366086512 -1.721946053
Cu -2.035119573 -1.838479298 -3.042079011
Cu 0.62457775 -4.044505245 -0.167146562
Cu 2.016714005 1.844943713 3.05041268
Cu -0.05775996091 0.6605907153 4.041813028
Cu -0.6156790644 4.045028615 0.1863960752
Cu -2.680371277 2.866262696 1.173123123
Cu -3.949894462 1.059088891 -0.229565687
Cu 0.3381786873 -2.388238971 -2.145416648
