23
Energy = -76.06360548 eV, Pt7Cu16
Pt -0.8082768259 -2.434333577 -0.3566684008
Pt 0.8843901413 0.7229819652 2.277675143
Pt -1.192350832 0.2136259419 0.4676204055
Pt -1.026733401 -0.6166103433 -2.159184275
Pt 1.170946316 -0.2375994509 -0.4223722589
Pt 0.1861573662 -1.724705446 1.924362442
Pt 0.3813386946 2.464162368 0.4576503404
Cu 2.760144735 1.432877719 0.6372989934
Cu 2.659120588 -0.9974181222 1.471646628
Cu 3.383114142 0.5178228122 -1.606483897
Cu -2.390381529 -1.815147308 1.602601608
Cu -3.068539883 -1.279004929 -0.6445298921
Cu 1.088804395 -2.12759103 -2.114588454
Cu -2.918607016 0.9671838806 -1.399899329
Cu -1.339995246 2.10760518 2.310697004
Cu -2.150936438 2.634863755 0.1134862801
Cu -1.465540545 -0.1435719405 3.066272258
Cu 1.245946944 0.2732778925 -2.911600345
Cu -0.591636439 1.790516628 -1.745186114
Cu 3.263016455 -1.712354718 -0.8895555678
Cu -3.461655768 0.6361246979 1.269159547
Cu 1.80147498 2.273451398 -1.579769096
Cu 1.590199165 -2.946157373 0.2313669797
