38
Energy = -165.3888394 eV, Pt29Cu9
Pt 2.482726218 -0.846935487 -1.602352341
Pt 0.1874909602 2.542628154 1.645296944
Pt -2.97934277 -0.8703959495 -1.244243357
Pt 1.984561778 3.453052587 -0.4677839424
Pt 3.810299865 1.153090313 -0.1692627163
Pt -1.57873769 -1.198659473 -3.691565861
Pt -0.9853268624 3.368516595 -0.7183427094
Pt -2.480851245 3.36612583 -3.137329526
Pt 3.450461274 -1.757163426 0.7515063507
Pt -1.626205679 1.341335764 3.528688189
Pt 1.664766782 0.3667275594 1.02676134
Pt 1.969934507 -1.549928394 3.169807104
Pt -0.4502712646 -0.4485920642 2.331476736
Pt -1.163689206 -3.271346535 -1.576469097
Pt 1.709593633 -3.509664738 -1.025706458
Pt -0.1494071186 -1.008131786 -1.290197791
Pt -1.310612999 1.475284013 -4.914673423
Pt -3.410199937 0.1648340295 1.560343158
Pt -0.3481799146 -3.095314569 3.082731564
Pt 0.8927435088 0.2718100536 -3.65879336
Pt -1.360455983 1.130562939 -2.298368813
Pt 0.4398717683 3.059360707 -3.126735451
Pt -3.692466175 0.7715454038 -3.495479601
Pt -3.509911947 1.889735976 -0.8480951449
Pt -1.24022575 0.712268313 0.3594858319
Pt 1.355270989 1.127285263 3.721833353
Pt -1.970730055 -2.175405681 0.9044930744
Pt 0.6933578599 -2.018762613 0.7051752733
Pt 0.9522462481 1.356400865 -1.076251493
Cu 0.857613304 -2.427731252 -3.328096482
Cu 2.930769427 1.839566836 -2.650284726
Cu -2.508515092 -1.39856121 3.593715258
Cu 2.046204986 -3.949675293 1.778272738
Cu -0.320365353 -4.465734273 0.6948664586
Cu 2.867798889 2.641749801 1.947068698
Cu 3.845649412 0.3178143114 2.541364062
Cu -0.2140400771 -0.856716649 4.839422163
Cu -2.552571098 2.823787827 1.48979819
