38
Energy = -116.5743926 eV, Pt5Cu33
Pt -0.1881195042 -1.494143494 -0.4760994808
Pt 0.2034987014 1.12258206 -1.037855092
Pt 0.174865309 0.3010681835 1.539055074
Pt -2.138669598 0.256762427 0.1553513697
Pt 2.207270472 -0.3911489577 -0.05025971607
Cu 4.45830599 0.5040902037 0.5934834946
Cu -4.079906102 -0.3375218048 -1.538211442
Cu 1.973404845 -0.069525063 -2.60739161
Cu -1.621176258 -3.534369871 0.07202698497
Cu 1.115997228 -2.127400084 1.6930424
Cu -0.3989259557 -3.492720157 -2.120514688
Cu 2.429642896 2.187032472 -0.07435401033
Cu 3.866085412 1.112571686 -1.688632654
Cu -1.909214727 0.4235286053 -2.412137395
Cu -3.406019951 2.021352384 -1.188407858
Cu 0.6464457867 2.805313503 1.478499848
Cu 1.494995283 -0.6173489421 3.575413379
Cu -1.256653185 2.819564505 -2.286634022
Cu -4.735864632 0.182744765 0.6890698412
Cu -1.440194584 2.743377111 0.191872041
Cu -0.1614116737 -1.190433238 -3.006780214
Cu -1.374067247 -1.770237442 1.823380025
Cu 0.5874475856 3.683627996 -0.8567471725
Cu -3.572414783 2.172622805 1.27943029
Cu 0.6471456524 1.681206331 3.687311964
Cu 1.896143574 2.419538538 -2.498140985
Cu 2.54553124 1.144837881 2.132571962
Cu 4.094005162 -1.297771477 -1.429137472
Cu 3.401180105 -1.172429543 2.091198485
Cu 0.8448239479 -3.833157403 -0.03439847116
Cu -0.9568824586 -0.2487116398 3.760202165
Cu 1.832966726 -2.379504841 -1.823562404
Cu -3.080525916 -0.08544114274 2.485535919
Cu 3.073628317 -2.792567132 0.2725695633
Cu -1.536285465 1.881555205 2.536142424
Cu -2.312910186 -1.959634207 -1.775627815
Cu -3.446579441 -1.896073054 0.4530577811
Cu 0.08797761705 1.213326882 -3.629687624
