38
Energy = -167.9930609 eV, Pt33Cu5
Pt -3.599309976 0.7622700001 -3.101571272
Pt -2.982692075 -1.407617168 -1.457740363
Pt 3.60704772 0.8737254263 0.260581793
Pt -0.8185564018 2.046987842 0.333080651
Pt 2.252134753 -3.492030328 -0.3846927581
Pt 1.206185016 1.109242105 1.736309894
Pt -2.196626289 -3.212006039 0.3178028784
Pt 0.08695724364 -3.123082628 1.527119321
Pt -3.441817305 1.088929383 -0.2659942525
Pt 0.6283560188 -1.034441929 3.322614185
Pt 0.9850258869 -2.971383896 -3.103558716
Pt 0.3640662371 2.783514009 -2.288250391
Pt -1.15325275 -0.5232974253 0.8387198396
Pt -0.08963211279 -1.846480255 -1.162369195
Pt -2.569864149 3.350921344 1.437972023
Pt 0.3338276536 3.574533439 2.362106322
Pt 2.847186867 -1.163807499 -1.743102042
Pt 1.742695895 -1.207134762 0.8173757146
Pt -1.431044523 -1.243150647 -3.774207765
Pt 3.196363572 2.715537313 2.441072147
Pt -0.5303409632 4.624746627 -0.1979743172
Pt 1.46961479 1.570232067 4.316179553
Pt 1.085904841 0.6323613353 -0.8173391033
Pt 3.330309039 -0.1844810787 2.873111982
Pt -1.270793289 0.5690665219 -1.810878121
Pt 0.9452573952 0.003303696142 -3.398517407
Pt -1.050376071 1.241663486 3.122193093
Pt -2.063495167 -1.681503516 2.948917395
Pt 2.682870608 -2.982615563 2.545451976
Pt 4.357425934 -1.801176449 0.635047875
Pt -1.262812878 1.663991137 -4.235783766
Pt 1.891573775 3.151679343 -0.01791911652
Pt -2.361492274 3.092855659 -1.760666174
Cu -3.936194982 -1.312244167 1.024247869
Cu -3.281481568 0.7965284733 2.247436345
Cu -0.07792171021 -4.552684264 -0.873929822
Cu 2.924176616 1.66908956 -2.286749532
Cu -1.737291177 -3.572968164 -2.486993728
