38
Energy = -142.1729934 eV, Pt12Cu26
Pt -0.4565938956 -1.177694665 1.42266514
Pt -1.864243375 2.361435233 -1.174645953
Pt 0.6138944186 0.5382953807 3.12581919
Pt -0.6397613993 1.479283904 0.9964696591
Pt 0.4785618421 1.165715064 -1.439053656
Pt 1.74263162 0.2357415759 0.7545715656
Pt -1.505169966 -2.847400029 -0.33911856
Pt -1.720670906 -0.2477216032 -0.7709623273
Pt 1.886196541 -2.373425929 1.158255473
Pt 0.6617179859 -1.491265234 -1.012859939
Pt 1.527114487 2.835428152 0.3227362344
Pt -0.5919454913 -0.5502543179 -3.142213288
Cu 0.4415134782 3.098387492 2.673664942
Cu 3.961597912 -0.9860890173 0.4978256156
Cu 3.783172401 1.60222564 0.08264870168
Cu -0.4195900668 -3.110334969 -2.690059662
Cu 0.8107432718 -4.015498984 -0.5549927663
Cu -2.776619565 0.0642802367 1.627952586
Cu 1.698425092 -1.728618423 -3.326184776
Cu 2.929822522 -2.634575994 -1.18926138
Cu -1.676478944 1.716663102 3.309790702
Cu -2.698565977 -1.918608192 -2.460773258
Cu -2.907883323 2.622576782 1.172863453
Cu -0.7888204272 4.003516884 0.5386056618
Cu -0.256707369 -3.715078849 1.776709916
Cu 0.7953577064 -2.034163148 3.49695667
Cu 0.2786558957 3.703097693 -1.793084321
Cu 1.523582111 0.8075786606 -3.733008894
Cu 2.798587022 -0.07626212675 -1.644346346
Cu 2.720494213 1.906657144 2.444385876
Cu 2.576566611 2.489940456 -2.011243279
Cu -2.554600211 -2.501906604 1.994873503
Cu -1.501631449 -0.8195300389 3.71661589
Cu -3.939646673 0.9740859998 -0.5142205199
Cu -0.7733979272 2.022202255 -3.513340518
Cu -2.87682703 0.6674299247 -2.875587393
Cu -3.76122075 -1.614204419 -0.09902982938
Cu 2.898779906 -0.679394272 2.859189722
