23
Energy = -75.09249251 eV, Pt4Cu19
Pt -0.9354146084 -0.6527865912 -0.9442076478
Pt -0.2942972297 1.290056119 0.5815952544
Pt 1.004806881 0.9521373201 -1.668518462
Pt 1.270447146 -0.7114577339 0.3381644803
Cu -0.661203082 -0.1456200039 -3.351705276
Cu -0.9803259765 -1.004235147 1.656687506
Cu 1.037947066 0.4582046427 2.605664949
Cu -3.064393638 -0.4326894072 -2.112163396
Cu 0.4741254232 3.069516436 2.060840017
Cu -1.388817893 -2.575962797 -2.372819104
Cu -0.06108499002 -2.872361587 -0.009993703652
Cu -2.681006094 -2.124503739 -0.06400383209
Cu -1.887968654 3.132354912 0.68764595
Cu 1.161302028 -1.665475905 -2.05745012
Cu -2.743501668 0.5587913761 0.4073164473
Cu 3.246149895 -0.2495240976 -1.080164083
Cu 0.4744424993 3.295848581 -0.6489667388
Cu -1.518976647 1.762935077 -1.640476956
Cu 2.658859616 -2.68360194 -0.019695832
Cu 3.345345003 -0.6031362569 1.614169611
Cu -1.521103002 1.390449451 2.69646678
Cu 2.259472007 1.662438772 0.5561095986
Cu 1.309818133 -2.230655508 2.256054202
