23
Energy = -94.73774133 eV, Pt16Cu7
Pt -2.907127771 -0.5818803935 -0.2831536977
Pt 0.7658832915 -2.902320688 -1.973595412
Pt 0.1750137084 -0.8027696774 -3.821848926
Pt 1.679477427 0.1064292705 2.652329202
Pt -1.107593605 -2.766935707 0.2455988202
Pt 1.199734938 0.983696915 0.09464786664
Pt 1.563244185 -1.761190026 0.4983807338
Pt -0.6803613053 -0.2599145925 1.281068739
Pt -1.412048597 1.874732704 -0.3819334891
Pt 2.344511936 -0.461276464 -1.93433464
Pt 0.5525289136 1.727167707 -2.463175806
Pt -1.969782409 -2.235973739 -2.469234229
Pt -0.3240260103 -0.5887302052 -1.248448862
Pt -2.778249391 1.180712005 2.01559182
Pt -2.106016181 0.5992513627 -2.819972369
Pt -0.1030444263 2.288393216 2.133181889
Cu 3.58574598 0.1586740717 0.5470549729
Cu 0.8531979714 3.498830914 -0.2566674446
Cu 0.04284278997 -2.211979767 2.786201262
Cu 3.040323621 2.180515703 -1.18451902
Cu -0.9069021654 0.123592929 3.787843377
Cu 2.64961081 2.511089384 1.5230394
Cu -2.564839682 -1.578606977 2.362186781
