23
Energy = -5774.78891 eV, Pt15Cu8
Pt -1.228933598 -2.614539453 2.465007624
Pt -2.306418594 1.07745381 0.6798244514
Pt -3.137061182 -1.057613212 1.825653124
Pt 1.10725824 3.411962577 -0.2285077709
Pt -1.426968865 0.4228211895 -1.761524904
Pt -0.09502869179 -3.532371536 0.300613947
Pt 1.290021237 -1.724910517 -0.8731887539
Pt 2.628960174 0.4185986816 -1.729579668
Pt 3.00748555 1.90808363 0.4121271349
Pt 1.054882263 -1.622399901 1.797168769
Pt 0.6300498262 1.989325866 -2.397368062
Pt -1.146966795 -2.234589449 -1.816306658
Pt -2.595520616 -3.093837259 0.2729305028
Pt -0.8360273897 0.04721019421 2.60476827
Pt 0.6420549127 0.7933960669 -0.07318356125
Cu 2.973868385 -0.5553656661 0.6028692261
Cu 1.582232276 0.8342409479 2.25728998
Cu -0.3333605962 2.37396747 1.617985292
Cu -3.267534361 -0.9078743386 -0.7306744739
Cu 2.897830105 2.891845413 -1.87318938
Cu -1.201994482 2.746211733 -0.7985308676
Cu 0.5545858479 -0.5157590274 -2.912698823
Cu -0.9905972442 -1.08784899 0.3590429573
