38
Energy = -160.5416565 eV, Pt22Cu16
Pt 1.851025211 0.9410092524 3.032427957
Pt -1.864299943 -2.60325522 1.180220876
Pt -3.167974705 2.522420129 -1.22831801
Pt 0.4802946828 1.251925962 0.6921911743
Pt -2.470347163 -0.6052799244 3.200314066
Pt 0.8742445676 -3.161205309 1.101692387
Pt -0.3369831735 -1.167056969 -0.8854879446
Pt -0.1270950702 -0.8055508606 2.007740523
Pt -0.6879013755 1.57534127 -1.550644564
Pt 4.181886627 -0.4706149765 -0.7772456228
Pt -2.651904798 0.07934889437 -2.472860905
Pt 3.164820176 1.761847468 0.6339649274
Pt 1.157739772 2.34722962 -3.425917953
Pt 2.238773491 -2.406091479 -1.2038597
Pt -0.9914118023 1.696267763 2.887411646
Pt -0.1320170904 -0.02893578935 -3.662241567
Pt 2.094147894 -1.835481043 3.287319156
Pt -1.297411048 3.234678768 0.5910765063
Pt -3.659347678 1.732982556 1.665697799
Pt 1.38728246 3.288134062 -0.8275519058
Pt -2.09293667 0.2771460784 0.4134797524
Pt 1.662328554 0.3958099926 -1.480439033
Cu 1.159846578 3.380028817 1.955369668
Cu 0.8610609251 -2.30127279 -3.200492886
Cu -3.052271903 -1.984091152 -0.9619986747
Cu -0.01533925873 -0.3679436161 4.564952733
Cu 3.582344657 1.950231937 -2.114022728
Cu 3.666394485 -2.666325521 1.086163312
Cu 2.760570449 -0.3847627102 -3.423826214
Cu -4.217540827 -1.137609462 1.338429842
Cu 2.074618633 -0.7531495224 0.8139804581
Cu 4.182050449 -0.305271805 2.110973716
Cu -1.710801555 2.283160836 -3.803134624
Cu -0.8917624712 4.07656114 -2.087471989
Cu -0.5447701127 -2.787030496 3.574839867
Cu -1.670635213 -2.292847536 -3.147913222
Cu -4.602332723 0.3382302886 -0.6438779847
Cu -0.5513130054 -3.624494746 -1.1841627
