23
Energy = -60.03050946 eV, Pt0Cu23
Cu 1.322871309 -3.098330855 1.088154212
Cu -0.1893247645 3.394443255 -1.106161129
Cu 2.509601886 0.1877907702 -1.230314528
Cu 3.243210984 -1.378216034 0.680216944
Cu -2.540539338 0.08177039656 1.936257611
Cu -0.5744687114 -2.574718996 -0.5751566855
Cu -2.249874882 -1.165463964 -1.95450413
Cu -0.09038366304 0.6809342243 2.020611679
Cu 2.327111412 0.970854703 1.212466908
Cu 1.905433525 -2.327932321 -1.271430974
Cu -2.870159941 -1.925303292 0.3988798516
Cu -0.7569618594 -1.791654157 1.867627426
Cu 0.6735088368 2.960704241 1.253486334
Cu 2.293401306 2.699884791 -0.6980348331
Cu 1.614763281 -1.080701848 2.619333014
Cu 0.9686537477 -0.8962105497 0.3557772318
Cu 0.9641725619 1.713470891 -2.637274366
Cu -1.660154688 2.086321587 0.557016092
Cu 0.2128694717 -0.6203170002 -2.038654441
Cu -1.477665351 1.303255214 -1.885768979
Cu -3.432549209 0.4893684862 -0.4171863204
Cu 0.4658972765 1.262433299 -0.3737647107
Cu -1.250825543 -0.275297313 -0.009075255215
