38
Energy = -8965.251206 eV, Pt1Cu37
Pt -1.267917727 2.293780026 -1.82589951
Cu -3.467853774 1.35946612 -1.119861546
Cu -1.535170646 0.7511187372 0.2754025593
Cu 0.7760041672 -1.087423226 -3.679528753
Cu -0.7194915645 1.01837601 3.654210034
Cu 1.083366472 2.960590785 -2.313727847
Cu 0.1209891609 -3.901685595 0.2939476871
Cu 3.810951114 -0.008211027778 -0.8958698882
Cu -0.4172490201 2.527636846 1.730625606
Cu -1.472325176 -1.878387964 -3.089752231
Cu 0.4194218411 0.119030421 1.689913107
Cu -3.760143588 -0.06179745719 0.8733890176
Cu -1.903385524 -0.704544377 2.350872734
Cu 0.467476193 -2.587073611 -1.756122569
Cu 2.996652617 2.31525182 -0.8990387663
Cu -0.3767934503 -0.1686645857 -1.731230659
Cu 1.956144475 0.6430971125 -2.380755736
Cu 1.278984003 -2.284699794 1.743005191
Cu 2.705895617 -1.70147538 -2.279517779
Cu 3.484501545 -1.413991936 1.085036098
Cu 2.338407088 -0.5039614997 3.070392234
Cu -1.800773484 -3.286926967 -1.097338744
Cu 0.7475742021 1.554191192 -0.323401963
Cu -2.652727386 1.635083844 2.259992524
Cu -0.0683136702 3.875056808 -0.3186952103
Cu -2.34998608 3.07236179 0.2798281138
Cu 2.768730064 0.9391115576 1.125293761
Cu -1.017406042 -2.99776842 2.265966626
Cu 0.09503948286 -1.293180818 3.65886753
Cu 1.855739737 3.221167966 1.077341746
Cu 2.379529134 -3.107128518 -0.298507512
Cu -2.720960715 -1.002314167 -1.153867953
Cu 1.575138758 -0.7986404802 -0.3121117018
Cu -2.939254612 -2.382941803 0.8748289403
Cu -2.3100209 0.4401148431 -3.125552126
Cu -0.04047300541 1.238544366 -3.720895011
Cu 1.52404525 1.807654812 3.065690602
Cu -0.7023635934 -1.59986862 0.285317624
