38
Energy = -167.432862 eV, Pt23Cu15
Pt 1.395092543 -3.722291413 1.266308342
Pt 1.894006831 1.442864374 -3.365073068
Pt 1.486418784 0.1509183633 -1.146884128
Pt -0.1237058151 -0.1973424337 -3.263617039
Pt -3.146148318 -0.5558795792 -0.9271088819
Pt 2.148006504 1.88195536 3.015385897
Pt -1.056317204 -2.859351888 1.34402538
Pt 1.029551556 -1.138334118 1.185844429
Pt -2.341043531 1.157073658 3.239385268
Pt -1.981274775 2.505064644 1.037520764
Pt -3.952658732 0.771066695 1.214660928
Pt -0.6143937361 -1.538397342 -0.9804220965
Pt -0.1396733713 -4.096460548 -0.7543856524
Pt 1.911089261 -2.512507565 -0.979928922
Pt 3.127491124 0.5836969909 0.9770356429
Pt 3.477445575 1.855856416 -1.324345184
Pt -1.5114052 -0.1999607213 1.183466871
Pt 2.624887663 3.148512916 0.7793949376
Pt -1.053608757 1.143776575 -1.153903454
Pt -3.513962303 2.007354758 -1.015082481
Pt 0.5524398541 1.547323543 0.9957898472
Pt 1.053553753 2.855822741 -1.33695887
Pt 0.1136486029 0.2512090638 3.317120571
Cu -1.468757509 3.682423959 -1.252357171
Cu 0.5313158114 -2.374728634 3.382740486
Cu 2.569535866 -0.6885173779 3.217102519
Cu 0.1416904975 4.085450243 0.7972413387
Cu -2.608235555 0.73929469 -3.158110865
Cu 0.2894286504 -2.801805392 -3.030005257
Cu -1.906978476 -1.434868252 3.413612291
Cu -0.5459292274 2.384811496 -3.375156491
Cu -0.3195079098 2.840243567 3.088824638
Cu -3.500000778 -1.835927524 1.340382093
Cu -2.612407859 -3.144489714 -0.7553522534
Cu 2.314199657 -1.15447924 -3.219786037
Cu 3.897572462 -0.7603587564 -1.147653961
Cu -2.16161043 -1.812553562 -3.003483177
Cu 3.438965358 -2.046856166 1.101384775
