38
Energy = -162.682763 eV, Pt21Cu17
Pt 1.285420957 3.079353238 1.309847354
Pt 0.4447007829 -0.9910182437 -0.8128392872
Pt 1.982906319 1.210931678 -0.4785942676
Pt -0.06922047525 -3.523481 -0.3227560939
Pt -0.2271754776 0.9564025468 1.056311822
Pt 0.1538646654 -0.4527087736 -3.388116153
Pt 2.476791032 -2.619127581 -0.3987785809
Pt -1.399241479 0.2189197773 3.246825039
Pt -1.150611753 3.318975695 0.244279373
Pt 3.943857205 -0.4867098049 -0.07360574725
Pt 1.853961196 -0.71448706 1.490903577
Pt -2.156829235 -0.3420287647 -0.3576454505
Pt 1.022651194 3.567928218 -1.208024656
Pt 1.319203765 -3.249285928 1.859161715
Pt -0.4768719979 1.444922412 -1.60238337
Pt -3.007660903 2.033851071 -1.151852164
Pt -0.7377353082 -1.659623796 1.514169623
Pt 2.597865465 -0.6870576847 -2.294430192
Pt -2.775535674 1.547830234 1.437143011
Pt -1.474336806 -2.181979812 -2.187622323
Pt -2.373336061 0.1746933388 -2.941740952
Cu 1.699157178 1.710765426 -3.035291535
Cu -0.8844159291 2.777007604 2.820655064
Cu -3.268887862 -1.01822124 1.89822572
Cu -1.834344978 -2.278581005 3.698039471
Cu 3.402299968 3.301754723 -0.1874893585
Cu -4.587270198 0.3280458432 0.01105255735
Cu 3.79540293 -2.332029458 1.809648981
Cu 1.056804509 -2.828246922 -2.631586916
Cu -1.130486208 -4.126087961 1.97982327
Cu -2.58449448 -2.879360676 0.1148690507
Cu 1.142136893 1.150128484 3.212646964
Cu 4.098126017 1.399861974 -1.870127625
Cu -3.949978687 -1.512511987 -1.734565271
Cu -0.7660045886 1.880412894 -4.091673696
Cu 3.326610066 1.428232849 1.698982385
Cu -1.36477565 3.73517152 -2.332748762
Cu 0.6341645972 -1.416272671 3.68155428
