13
Energy = -56.34359522 eV, Pt9Cu4
Pt 0.8293431101 0.8561620553 -2.207481764
Pt -1.694025138 0.32269088 -1.877647623
Pt -0.008240032772 1.695760467 1.903187552
Pt 0.08088895526 -1.621890159 -1.962835994
Pt 1.766675859 -0.2488211304 1.81800005
Pt -0.6174542786 2.34794238 -0.5775963795
Pt 2.25131234 -0.7950517988 -0.715284933
Pt 1.852349596 1.68939874 0.08689156233
Pt -0.1242534549 -0.1151880235 0.09702201787
Cu -2.334968591 0.8602849771 0.7284669766
Cu -0.7376094127 -0.7768681505 2.421751988
Cu -1.951201591 -1.765336235 -0.3000573762
Cu 0.6703044229 -2.432263712 0.5842267625
