38
Energy = -158.4560271 eV, Pt19Cu19
Pt 1.735562805 1.729239771 2.150205687
Pt 0.2666903708 -0.4580608972 1.843525434
Pt 0.9745275356 -3.96402028 0.8376800098
Pt -1.968115811 0.9357392227 2.489281119
Pt 1.233745348 2.652217279 -1.440077031
Pt -0.3483257016 1.828965971 0.5217409311
Pt -0.2510789222 0.4950812471 -1.831197644
Pt 1.941145395 -0.9136177038 -2.489576698
Pt 0.8674052225 -2.693914019 3.057143607
Pt 0.3786576418 -1.812625924 -0.5256915587
Pt 1.877928121 0.421258477 -0.1535260108
Pt 2.473409203 -1.86016859 1.179822912
Pt -1.852578541 -0.4233396291 0.1529380224
Pt -1.207095885 -2.694257341 1.481425346
Pt -2.550633934 3.09257273 1.152143364
Pt -3.956123853 0.9794694654 0.8051101303
Pt -2.478762577 1.86961987 -1.145499856
Pt -1.707198494 -1.740235031 -2.190197282
Pt -0.1229946541 -0.8814249 -4.013717719
Cu 3.934842764 -0.9576438983 -0.7991627776
Cu 0.4787096879 -3.084064763 -2.786474941
Cu 2.523850992 -3.112974784 -1.129557326
Cu 3.329317968 1.261392943 -2.095942839
Cu -3.840378172 -0.3489879396 -1.48561235
Cu 1.141935089 3.90048 0.8425969423
Cu 3.838014641 0.345317563 1.502137757
Cu -0.4537375308 3.0751589 2.770516972
Cu -0.947433333 3.97927816 -0.7603003394
Cu 2.303177916 -0.5034068436 3.427201694
Cu -2.283115263 0.5072991061 -3.413809451
Cu -1.071679309 -3.926058319 -0.8350926976
Cu -1.291986302 -1.311720128 3.712168343
Cu -0.8396258316 2.693636918 -3.015146044
Cu -3.348734675 -1.259659163 2.078825781
Cu 0.1472193503 0.8843267146 4.02987555
Cu 1.298816114 1.318627014 -3.718303482
Cu -3.200643496 -2.572823398 -0.213807871
Cu 3.253855885 2.557077716 0.2000704333
