23
Energy = -62.44616555 eV, Pt1Cu22
Pt 0.03267347847 1.001970211 0.2467006903
Cu 1.429610345 1.789025445 -1.705907269
Cu 2.708119114 1.258215237 0.3959456521
Cu -0.04636357961 -0.3115375333 3.061956673
Cu 0.1840130014 3.846279398 -1.563555454
Cu -1.174717476 1.760958183 2.364878271
Cu -1.260231936 1.924232706 -1.718340563
Cu -1.740247396 -0.5316098092 1.394296479
Cu 1.349884955 3.227585276 0.4632766316
Cu 1.632221326 -0.7011288965 1.409886546
Cu -2.193869593 -2.574648814 0.1595435383
Cu 1.081983242 -2.496854521 -2.158366767
Cu -0.0870518291 -1.429303585 -0.2897477907
Cu -1.056669187 3.348553376 0.4521533782
Cu -0.1511739402 -2.512260235 1.805007544
Cu -0.01286594447 -0.1426504514 -2.34761215
Cu 1.890066899 -2.779928974 0.1784218238
Cu -0.2075178064 -3.841766288 -0.4617842195
Cu -2.604852936 1.525272472 0.371386316
Cu -1.339956471 -2.375112164 -2.169562785
Cu 1.290505838 1.637041605 2.376273078
Cu 2.060933218 -0.5439929762 -1.053388956
Cu -2.128304174 -0.3334196011 -1.072755507
