38
Energy = -167.6535243 eV, Pt28Cu10
Pt -0.7378436616 -3.261375863 -2.730030154
Pt -0.5043274338 1.116698138 -4.221208152
Pt -1.509323822 1.077918451 0.3135695031
Pt -0.8821950526 3.286445325 -2.695107099
Pt -4.105888411 1.004591979 -0.2466795718
Pt 0.3069695146 1.13445579 -1.690814704
Pt 0.7045707779 -1.080717992 -3.280623988
Pt -0.3089498066 -1.119409293 1.342660434
Pt 2.544819655 3.313795812 0.42270244
Pt -3.730439922 -1.164820362 -1.779255155
Pt 2.101722853 1.167191065 -3.640743201
Pt 0.0827667947 -3.337144032 -0.1941857748
Pt -1.930926643 -1.108810312 -3.765111096
Pt -0.0684178061 3.390984584 -0.1414121606
Pt 2.993649431 1.189073617 -1.124769531
Pt -2.387821233 1.099570107 -2.307800703
Pt -2.685964137 3.230298608 -0.7045519496
Pt -0.682853009 1.074632097 2.932452814
Pt 2.345744631 -1.066246425 1.920501239
Pt 1.738225764 3.332134482 -2.125897951
Pt -2.52275927 -3.316933969 -0.7602923672
Pt 1.51066395 -1.062766642 -0.6653799519
Pt 0.7525856291 3.258008887 2.400519921
Pt -1.131053786 -1.108504927 -1.231247827
Pt -1.862644161 3.220043975 1.847848524
Pt -3.272908008 0.99988352 2.290467362
Pt 1.131426899 1.123233326 0.8818794073
Pt -2.989394679 -1.195705707 0.7958695552
Cu -2.03996761 -1.121206711 3.21640374
Cu 3.632028789 1.1284887 1.398434427
Cu -1.671307112 -3.243147667 1.715975101
Cu 3.983330396 -0.9615981664 -0.07178155853
Cu 1.807254287 -3.134862022 -2.122800804
Cu 0.8828302391 -3.168776251 2.265021785
Cu 1.891700133 1.074321778 3.31898517
Cu 3.203880945 -0.9579688419 -2.570472571
Cu 0.5225051291 -1.069334262 3.747413527
Cu 2.603190833 -3.115218902 0.3665086253
