13
Energy = -50.07169806 eV, Pt10Cu3
Pt -1.527144223 -2.092582314 0.6934731859
Pt 1.875101385 -0.3820143764 -1.892517557
Pt 2.587927096 -0.03580697216 0.8500947804
Pt -0.6739780637 -1.657308948 -1.975180714
Pt 1.225192477 -2.402052868 0.01718541969
Pt 0.0338918599 0.004064780695 0.02308269723
Pt 1.519876739 2.15209052 -0.6342870071
Pt -0.4856690701 1.144517375 -2.366814723
Pt 0.4735940035 -1.099952765 2.440128025
Pt 0.6566297325 1.699312741 2.028205515
Cu -2.465624817 0.08489591465 -0.7420498209
Cu -1.79176542 0.4121781041 1.850639893
Cu -1.177383268 2.321792893 0.04532914009
