13
Energy = -51.23202381 eV, Pt9Cu4
Pt -0.3123250134 2.306452791 1.161180537
Pt 0.9052951874 -1.843227988 1.480707336
Pt 0.03454420737 0.005993203885 -0.1063636945
Pt 1.64692586 1.969858013 -0.5963473956
Pt -0.9227899014 2.028562829 -1.40611083
Pt -2.395861973 0.7862840309 0.4583068382
Pt 1.732619496 0.6919634957 1.759262327
Pt -0.7619434226 -0.005256435849 2.420409881
Pt -1.66442024 -1.784519137 0.6709451324
Cu 0.7782806151 0.3565658978 -2.44112222
Cu 2.415625685 -0.6078141826 -0.3830177791
Cu 0.2632293172 -2.291541092 -0.9986515704
Cu -1.78128737 -0.5119350494 -1.705536241
