13
Energy = -44.40853304 eV, Pt1Cu12
Pt 2.234388811e-08 -7.801851107e-09 -1.261462623e-08
Cu 2.266962773 0.7356214995 -0.9618725416
Cu 0.3389321126 -0.3316512133 -2.525983067
Cu -0.3389321289 0.3316511932 2.525983016
Cu -0.0003870418918 2.123189162 -1.448283648
Cu -2.057730344 0.3716098359 -1.494359317
Cu -1.06188871 -2.098493371 -1.036424515
Cu 1.610918606 -1.873521771 -0.707329699
Cu 0.0003870146588 -2.123189113 1.448283649
Cu -2.266962713 -0.7356214781 0.9618725458
Cu 2.057730311 -0.3716098431 1.494359354
Cu -1.610918607 1.873521732 0.7073297264
Cu 1.061888687 2.098493374 1.036424563
