38
Energy = -9919.850012 eV, Pt29Cu9
Pt -3.092514091 -2.692934037 0.3471006501
Pt -1.91785412 3.235499938 -1.705323067
Pt 3.779095723 0.8843442771 1.350191734
Pt 0.2544020502 0.2248232574 4.10699809
Pt -2.06880584 0.7327492891 -2.469917279
Pt -3.717099988 1.670381815 -0.6605577171
Pt 3.101362212 0.1999423732 -1.070690862
Pt 0.4395281679 -2.143205744 -2.470939609
Pt -0.4324353412 2.133614211 2.46872281
Pt -0.2640504426 -0.2244349211 -4.114099494
Pt -2.093336717 -1.820266534 -3.058535495
Pt -1.134015432 3.911228182 0.6798436065
Pt -3.101162355 -0.1892428143 1.076332108
Pt 0.6148865261 3.050835945 -1.069677452
Pt 0.1805218451 -2.254131555 3.428005087
Pt 2.051547089 -0.714420555 2.467710262
Pt 1.38590697 3.628278631 1.351167138
Pt 2.21293988 -0.4824398127 -3.419635855
Pt 1.145060889 -3.904376827 -0.662539599
Pt -2.932004912 2.343674654 1.721492213
Pt -3.807983684 -0.8783748933 -1.346964429
Pt -2.211828421 0.4888414392 3.428980307
Pt 3.093715574 2.702778273 -0.3343716375
Pt -0.1827445807 2.264355877 -3.418659408
Pt 3.716675828 -1.650380066 0.6778665633
Pt 1.919654184 -3.219043326 1.719514628
Pt -1.392637444 -3.647713901 -1.347948983
Pt -0.6129763016 -3.042097166 1.075317835
Pt 2.939839363 -2.334136647 -1.707303011
Cu -1.203164701 1.382696673 0.001388546177
Cu -0.4989472649 -0.4313704175 1.69337602
Cu 1.276750085 1.117714206 0.6608318136
Cu -2.25753292 -1.965523569 2.706031031
Cu 2.255975919 1.972964111 -2.699127562
Cu 1.201971931 -1.374936571 0.0004082588845
Cu 2.038198081 1.780998473 2.998296673
Cu -1.284531532 -1.115696221 -0.6710389627
Cu 0.49314037 0.4351080272 -1.696566527
