38
Energy = -9194.464291 eV, Pt6Cu32
Pt 0.4244196636 -1.769804708 2.715839746
Pt -2.851522756 -1.042094874 1.1060255
Pt -1.856124057 2.520348339 0.6924535865
Pt -0.3964001089 1.716022427 -2.629612822
Pt 1.874622538 -2.556220002 -0.6146740395
Pt 1.421826755 1.791540706 2.297676433
Cu -2.388205578 0.282880405 -3.045072296
Cu -1.350120771 -1.779186697 -2.149037434
Cu 3.787182586 -1.079757674 -0.01804626642
Cu 0.4803783443 1.683198152 -0.1505667402
Cu -2.929916637 1.080085308 2.439611649
Cu -1.845660923 -0.9596137441 3.401605034
Cu -3.794957795 1.044795308 0.08793680635
Cu 2.926691945 -1.114067718 -2.347188597
Cu 0.6181131393 -3.752798186 1.193019743
Cu 0.2721644237 3.741682742 1.222080026
Cu 1.642183108 2.955410268 -1.921172301
Cu -0.464991266 -1.723721786 0.2505665098
Cu -2.471192565 -3.038804436 -0.3307451438
Cu 0.9164451255 -2.447051988 -2.907758787
Cu -0.8980716238 2.427391007 3.006204669
Cu 0.7033643478 -0.4005573493 -1.540419997
Cu 3.573978333 0.9697165558 1.354989553
Cu -3.545817079 -1.017223257 -1.284193517
Cu -1.557652754 0.3317903449 -0.7188848546
Cu 0.1861841001 0.387691978 3.968198013
Cu 2.655559572 -2.40177814 1.761174689
Cu 1.856570413 0.8990426819 -3.29664167
Cu -0.5911670148 3.705955623 -1.119445991
Cu -1.627300694 -3.032995806 2.011165639
Cu 2.43982163 -0.3361084248 3.145308789
Cu -0.6898689968 0.361067833 1.644744719
Cu -0.2432062637 -3.75228743 -1.141945951
Cu 2.784911462 0.9627316176 -0.9959570361
Cu 2.499353666 2.991297819 0.4015412667
Cu 1.573039844 -0.3723140209 0.8188846199
Cu -2.628613353 2.354935496 -1.687601077
Cu -0.153676359 -0.4339416176 -3.857211966
