38
Energy = -118.8748384 eV, Pt6Cu32
Pt 0.5844102597 -1.361964839 -1.246349243
Pt 2.24837645 0.07374819823 0.3968473891
Pt 0.1749017269 -1.322673368 1.389425852
Pt -1.538864945 -0.05023103702 -0.2715840459
Pt 0.5552120948 1.346858714 -1.260530764
Pt 0.03531631931 1.382537164 1.355762773
Cu 0.3414796292 -3.67452192 0.1316964268
Cu 2.391136554 -1.223119949 2.65057231
Cu 1.924129701 -3.356443032 -1.930826397
Cu -2.559687222 1.340870986 1.741687966
Cu -3.915861775 0.9867124909 -0.2259267184
Cu 1.217183407 -3.472449545 2.375567934
Cu -1.71924051 -1.48064892 -2.496879514
Cu 2.261352868 2.633605296 0.3831303742
Cu 1.733293163 3.569334595 -1.854792321
Cu 0.7038304072 0.2684635994 3.607517937
Cu 1.910553119 -0.1826003617 -3.146057971
Cu -1.46490899 3.537967713 1.770467769
Cu 0.9308407506 3.450200387 2.434710112
Cu -1.502126809 -2.972790981 2.220062764
Cu -1.563995519 -0.4281250505 3.031351214
Cu -2.5786247 0.9650238289 -2.344582495
Cu -0.4568960798 0.3622793478 -3.387999804
Cu -0.9764985831 2.022501749 3.607493641
Cu 0.08431009747 -2.040383543 3.907489397
Cu 1.285887828 2.085518224 -3.665618231
Cu -0.8376682185 2.896533237 -2.632985633
Cu 2.418211918 -2.480135158 0.4427987769
Cu 0.132125481 3.690314601 -0.04807620391
Cu -1.768524123 -2.575196519 -0.2108071644
Cu 3.257624066 -1.270698091 -1.510937547
Cu -1.893551503 2.455607807 -0.4355071016
Cu -3.686067601 -1.235289741 -1.115760652
Cu 2.456938643 1.458067913 2.519558921
Cu -3.158233187 -1.152516049 1.332094619
Cu 3.070668161 1.402200746 -1.686568213
Cu 0.4463613154 -2.039545787 -3.70104234
Cu -0.5436263694 -3.603425731 -2.124943063
