13
Energy = -38.23758346 eV, Pt3Cu10
Pt -0.06926206416 0.002764859507 -0.008286129731
Pt 2.295734705 0.203106364 -1.011816258
Pt 1.963187035 -0.4757894964 1.50186426
Cu 1.236314308 -2.090507231 -0.4009166314
Cu -1.957662098 0.473603775 -1.506924766
Cu -2.291534146 -0.2079981928 1.016774151
Cu 1.363412696 1.922795335 0.6998123636
Cu -1.252229701 2.11729752 0.4063084121
Cu -0.2038583603 0.6964457078 2.366062746
Cu -1.381165793 -1.953922682 -0.7103059203
Cu -0.2827589511 -1.794903696 1.682763134
Cu 0.3311254924 1.7886125 -1.677801473
Cu 0.2522256301 -0.7027319832 -2.361106068
