38
Energy = -180.4950775 eV, Pt29Cu9
Pt 3.636164808 0.6722950562 -1.839856168
Pt 0.5056119226 -1.803652375 2.94625753
Pt 1.643666066 0.3419201837 -3.496520363
Pt 2.676334614 -0.1917392169 2.328221952
Pt -1.584795327 -0.3771454707 3.526553912
Pt -3.799518816 0.999991921 -0.115103656
Pt -1.963156011 -2.376198529 -2.470745794
Pt 2.417513141 -1.64398625 -2.016956805
Pt 1.987655049 2.34792912 2.50335066
Pt -2.065149031 -3.584435026 -0.1080123967
Pt 0.1648899193 0.6257775063 1.819747509
Pt 3.702469552 1.539250549 0.6472408607
Pt -0.232818654 3.228731595 1.382819577
Pt -0.167880797 3.672533006 -1.172693819
Pt -2.625866146 0.1644643739 -2.315689045
Pt 1.28084718 -1.425954318 0.3882204136
Pt -3.598986019 -0.7644361966 1.859558354
Pt -1.926135382 -2.774576216 2.442134188
Pt -1.388930573 -1.126818102 0.4993116274
Pt -0.4166101235 1.780653898 -2.909878337
Pt 0.2466905438 -3.250520827 -1.357665114
Pt 1.401808976 1.139745923 -0.5736674184
Pt 2.070215768 3.551366395 0.1689238087
Pt -1.244073385 1.423227345 -0.3898638811
Pt 0.2266023787 -3.70745663 1.202940146
Pt -3.714198718 -1.581118476 -0.6622827575
Pt -2.382769195 1.58381495 2.015328537
Pt -0.114608259 -0.6533097235 -1.838696324
Pt 3.840575674 -1.05872087 0.126461412
Cu -2.582010445 3.534895022 0.3009049187
Cu 0.5742328301 -2.267970325 -3.747837171
Cu 2.027532963 2.779584632 -2.436220859
Cu -0.556031261 2.224901889 3.753771933
Cu -0.9846268982 -0.3659400338 -4.264049365
Cu -2.682553326 2.755824812 -2.085974873
Cu 1.041668043 0.3701607186 4.266540238
Cu 2.752418316 -2.775047853 2.072050839
Cu 2.598504128 -3.574779653 -0.2927719943
