13
Energy = -51.35454694 eV, Pt12Cu1
Pt -1.427135227 2.199184544 0.6588243402
Pt 2.461609197 -0.2176119972 1.093356848
Pt 0.2941201408 0.9141465902 2.52584266
Pt 1.394342936 2.296990945 0.2949120648
Pt -0.0006525654146 0.003963211914 -0.004206472907
Pt -0.3146339911 1.854376357 -1.941240572
Pt -0.2924995291 -0.9352735194 -2.519384776
Pt 2.09558609 0.3597892707 -1.669329156
Pt -2.083356551 -0.3751631085 1.679563333
Pt -2.469661113 0.20153505 -1.080506936
Pt -1.385228105 -2.303758396 -0.2759515967
Pt 1.423714717 -2.206386225 -0.6382468304
Cu 0.3040774647 -1.791926458 1.87575125
