38
Energy = -195.6466216 eV, Pt36Cu2
Pt 1.84533375 -0.6266876144 0.1792976197
Pt 0.7057199589 1.315182548 -3.886927917
Pt 3.608229542 -1.446248752 -1.578457444
Pt 2.565491988 0.9773574143 -2.005071947
Pt -1.226949721 2.730877462 1.692226198
Pt 0.547532011 -4.157865244 0.5665462292
Pt -1.795206724 0.6273913437 -0.04449684631
Pt -2.919137915 2.991227174 -0.3530002072
Pt -1.15832487 2.257284002 -2.222273506
Pt 1.87073962 -1.062620102 -3.574359184
Pt 1.236090062 3.771235707 1.519195882
Pt 2.471002332 1.442206158 1.887039274
Pt -0.6115045747 -1.806265316 0.265842391
Pt 1.263093534 -2.728233848 -1.583556896
Pt 0.5758172373 2.240396453 3.553262444
Pt 1.290808364 3.311210822 -2.218157414
Pt 3.041041443 2.936673908 -0.2404740131
Pt -1.691416 0.165059053 -3.788175089
Pt -4.158619525 -0.5352847553 0.04813666268
Pt -1.193038243 -3.755781417 -1.41426145
Pt -1.257440561 -3.32331435 2.32619892
Pt 4.169383792 0.5788341036 0.04985687152
Pt 0.0009697258315 0.2260899256 1.977385828
Pt 2.909392034 -3.006082384 0.4576614303
Pt -1.799040867 1.05390318 3.693145131
Pt -0.6841763064 -1.34454689 3.961050769
Pt 0.05892861441 -0.229914925 -1.852118916
Pt -3.503510806 1.002930884 -2.021533615
Pt -2.458154503 -1.440937376 -1.801606802
Pt -2.529363954 -0.9747202852 2.113742568
Pt 1.175473197 -2.243825242 2.306336581
Pt -3.565126554 1.450767261 1.725132827
Pt -0.5184314668 4.147755429 -0.4543050958
Pt 0.6582897472 1.806542268 -0.1451237557
Pt -3.002298891 -2.91923639 0.3495662133
Pt -0.5337462666 -2.211324346 -3.48578573
Cu 1.704196059 -0.156346662 3.87788688
Cu 3.523388255 -0.997479851 2.104347987
